Na7 
1.0
2.5633862993800001e+01 0.0000000000000000e+00 0.0000000000000000e+00 
0.0000000000000000e+00 2.5633862993800001e+01 0.0000000000000000e+00 
0.0000000000000000e+00 0.0000000000000000e+00 2.5633862993800001e+01 
Na 
7 
Cartesian
  11.2191000000   10.9607000000   13.2613000000
  13.0754000000   16.4666000000   11.0873000000
  13.9473000000    8.8121500000   12.0529000000
  14.0230000000   11.6796000000   14.8884000000
  13.5589000000   12.9528000000   11.0783000000
  13.1022000000   14.6953000000   14.4561000000
  10.7927000000   14.1515000000   12.8943000000
