Na7 
1.0
3.0693000068800000e+01 0.0000000000000000e+00 0.0000000000000000e+00 
0.0000000000000000e+00 3.0693000068800000e+01 0.0000000000000000e+00 
0.0000000000000000e+00 0.0000000000000000e+00 3.0693000068800000e+01 
Na 
7 
Cartesian
  17.8036000000   14.1382000000   17.1030000000
  20.4883000000   14.3069000000   13.9384000000
  17.9769000000   16.4674000000   14.3161000000
  17.0283000000   17.2677000000   17.9624000000
  14.5420000000   15.5050000000   14.8102000000
  11.1347000000   15.2057000000   14.3387000000
   8.4517400000   14.5346000000   14.9567000000
