%nproc=15
#P B3LYP/6-311+g(d) force

DPGEN

0 2
Na 13.655000 16.839200 17.527100
Na 18.311300 14.276800 16.115800
Na 18.727800 12.787200 19.143000
Na 14.144200 13.779100 16.749300
Na 15.953500 17.002100 14.589000
Na 13.509300 17.607100 11.512100
Na 12.324700 14.334200 10.989500

