%nproc=15
#P B3LYP/6-311+g(d) force

DPGEN

0 2
Na 12.180000 13.674000 14.655300
Na 12.299800 9.943980 14.061800
Na 10.438800 14.381500 10.284200
Na 12.315700 8.966430 10.670500
Na 9.891110 11.571400 12.435200
Na 12.148300 11.754000 8.900400
Na 13.425600 12.408000 11.692000

