%nproc=15
#P B3LYP/6-311+g(d) force

DPGEN

0 2
Na 14.349500 13.913100 13.906100
Na 16.614500 12.788200 11.662900
Na 17.734000 14.980800 13.437200
Na 18.215200 18.380900 15.103000
Na 16.343900 15.715800 16.365300
Na 13.138100 16.540000 16.978800
Na 11.030300 15.106500 19.972300

