Na7 
1.0
2.4656358527999998e+01 0.0000000000000000e+00 0.0000000000000000e+00 
0.0000000000000000e+00 2.4656358527999998e+01 0.0000000000000000e+00 
0.0000000000000000e+00 0.0000000000000000e+00 2.4656358527999998e+01 
Na 
7 
Cartesian
  13.9335000000   11.8670000000   12.2577000000
  12.2341000000   11.8330000000    9.0428900000
  10.4311000000   12.7764000000   12.5081000000
  13.1758000000   15.1923000000   11.2066000000
  11.5347000000    9.1518700000   11.8675000000
  12.4038000000   10.8092000000   14.7255000000
  12.5843000000   14.6675000000   14.6889000000
