Na7 
1.0
3.0693000068800000e+01 0.0000000000000000e+00 0.0000000000000000e+00 
0.0000000000000000e+00 3.0693000068800000e+01 0.0000000000000000e+00 
0.0000000000000000e+00 0.0000000000000000e+00 3.0693000068800000e+01 
Na 
7 
Cartesian
  15.1541000000   13.8255000000   14.1825000000
  18.7586000000   13.3066000000   13.8246000000
  17.8159000000   16.1040000000   14.5868000000
  17.8422000000   18.3497000000   17.5008000000
  14.7867000000   17.8898000000   15.4758000000
  12.9893000000   14.2068000000   16.4857000000
  10.0787000000   13.7430000000   15.3693000000
