%nproc=15
#P B3LYP/6-311+g(d) force

DPGEN

0 2
Na 12.701600 15.241100 13.237200
Na 14.798900 13.700100 10.110800
Na 15.839300 12.744200 12.897300
Na 17.103900 13.741800 15.765800
Na 14.637600 16.836900 15.082900
Na 15.749800 16.314000 19.106700
Na 16.594500 18.847500 21.224700

