%nproc=15
#P B3LYP/6-311+g(d) force

DPGEN

0 2
Na 11.733800 11.754400 13.615800
Na 12.342300 9.564950 11.678400
Na 14.553900 11.613000 11.717900
Na 11.577400 11.779300 9.905800
Na 9.602590 10.202900 11.710900
Na 9.599530 13.235100 11.673700
Na 12.550300 13.810100 11.657400

