Na7 
1.0
3.0693000068800000e+01 0.0000000000000000e+00 0.0000000000000000e+00 
0.0000000000000000e+00 3.0693000068800000e+01 0.0000000000000000e+00 
0.0000000000000000e+00 0.0000000000000000e+00 3.0693000068800000e+01 
Na 
7 
Cartesian
  12.8863000000   14.1679000000   13.6753000000
  17.1368000000   18.1378000000   13.8186000000
  16.8911000000   13.2361000000   17.3012000000
  18.3993000000   15.2819000000   15.2337000000
  13.7812000000   17.2858000000   13.8483000000
  13.1135000000   13.4365000000   17.3054000000
  15.2173000000   15.8794000000   16.2431000000
