Na7 
1.0
3.0693000068800000e+01 0.0000000000000000e+00 0.0000000000000000e+00 
0.0000000000000000e+00 3.0693000068800000e+01 0.0000000000000000e+00 
0.0000000000000000e+00 0.0000000000000000e+00 3.0693000068800000e+01 
Na 
7 
Cartesian
  14.0868000000   14.4702000000   12.9708000000
  15.9718000000   14.3140000000    9.5121900000
  18.0981000000   13.9284000000   12.2217000000
  16.3164000000   13.9586000000   15.6577000000
  13.3416000000   15.5401000000   15.9695000000
  14.8023000000   16.6043000000   19.4696000000
  14.8083000000   18.6100000000   21.6241000000
