Na7 
1.0
3.0693000068800000e+01 0.0000000000000000e+00 0.0000000000000000e+00 
0.0000000000000000e+00 3.0693000068800000e+01 0.0000000000000000e+00 
0.0000000000000000e+00 0.0000000000000000e+00 3.0693000068800000e+01 
Na 
7 
Cartesian
  13.0346000000   15.9165000000   13.8954000000
  17.0959000000   17.3127000000   16.9386000000
  14.8490000000   14.9251000000   16.6751000000
  18.1625000000   15.4007000000   14.7540000000
  14.7511000000   11.7194000000   15.5233000000
  13.9423000000   18.3670000000   16.1523000000
  15.5901000000   13.7843000000   13.4868000000
