%nproc=15
#P B3LYP/6-311+g(d) force

DPGEN

0 2
Na 13.193600 15.091400 14.209100
Na 10.505800 14.108600 12.878400
Na 13.987900 11.500600 12.949400
Na 16.277200 14.009800 13.267200
Na 16.451200 17.178800 15.327400
Na 17.340900 17.035300 18.400000
Na 19.668800 18.501100 20.394000

