%nproc=15
#P B3LYP/6-311+g(d) force

DPGEN

0 2
Na 16.403100 17.774200 14.692200
Na 17.114200 18.247100 17.785900
Na 16.456300 15.264300 18.576200
Na 15.134300 14.435900 15.386200
Na 14.911300 14.389800 12.154200
Na 15.847100 11.931800 17.737200
Na 11.559300 15.382500 11.093700

