%nproc=15
#P B3LYP/6-311+g(d) force

DPGEN

0 2
Na 13.036500 12.699700 12.693200
Na 10.008800 15.185300 13.654700
Na 10.275500 11.238100 11.305000
Na 12.799500 9.915100 10.189300
Na 15.780300 11.559200 13.070200
Na 15.483800 14.836500 13.594000
Na 12.911200 14.861700 15.789300

