%nproc=15
#P B3LYP/6-311+g(d) force

DPGEN

0 2
Na 13.085300 12.245400 12.595600
Na 11.349500 12.302500 14.632300
Na 10.667600 13.695100 12.185200
Na 11.704300 15.100400 14.431500
Na 14.040400 14.658800 13.211300
Na 15.599400 12.459900 14.058000
Na 17.941200 13.925600 13.273700

