%nproc=15
#P B3LYP/6-311+g(d) force

DPGEN

0 2
Na 11.838900 13.754900 16.305200
Na 13.430700 13.002000 9.920340
Na 14.881600 12.134600 16.363400
Na 11.668300 15.526700 11.439900
Na 13.174400 12.241600 13.613300
Na 13.834400 15.780300 14.292300
Na 16.366000 12.754300 13.259800

