%nproc=15
#P B3LYP/6-311+g(d) force

DPGEN

0 2
Na 14.437200 17.521300 17.053400
Na 11.946400 14.994000 16.673100
Na 15.398000 14.731600 16.268600
Na 17.706600 13.815400 13.931400
Na 17.983900 16.784700 15.879400
Na 15.174000 17.138400 13.948200
Na 14.779400 12.440200 13.671500

