Na7 
1.0
2.5108408065599999e+01 0.0000000000000000e+00 0.0000000000000000e+00 
0.0000000000000000e+00 2.5108408065599999e+01 0.0000000000000000e+00 
0.0000000000000000e+00 0.0000000000000000e+00 2.5108408065599999e+01 
Na 
7 
Cartesian
  12.0618000000   15.0745000000   13.8224000000
  15.2360000000   13.7589000000   12.7463000000
  13.8273000000   12.7316000000    9.8415100000
  14.2167000000   10.2225000000   12.0255000000
  11.6108000000    9.6201200000   14.7562000000
   9.2786000000   14.4109000000   11.8544000000
  11.6482000000   12.0608000000   12.8331000000
