%nproc=15
#P B3LYP/6-311+g(d) force

DPGEN

0 2
Na 14.390700 14.455600 13.063500
Na 16.169700 12.380600 11.091200
Na 18.080200 14.259900 12.903900
Na 18.323300 16.524300 15.488500
Na 15.398400 18.082800 15.510600
Na 12.107300 16.366500 18.099000
Na 12.955900 15.355700 21.268800

