Na7 
1.0
3.0693000068800000e+01 0.0000000000000000e+00 0.0000000000000000e+00 
0.0000000000000000e+00 3.0693000068800000e+01 0.0000000000000000e+00 
0.0000000000000000e+00 0.0000000000000000e+00 3.0693000068800000e+01 
Na 
7 
Cartesian
  16.9449000000   13.1606000000   15.3592000000
  20.4289000000   14.1348000000   13.8090000000
  18.0342000000   16.7570000000   14.9242000000
  16.8341000000   18.8495000000   17.1351000000
  14.9502000000   15.5438000000   15.6276000000
  11.7271000000   14.1911000000   14.9101000000
   8.5060900000   14.7887000000   15.6603000000
