%nproc=15
#P B3LYP/6-311+g(d) force

DPGEN

0 2
Na 14.389700 16.803200 15.558700
Na 9.910720 15.883000 17.947800
Na 12.838400 14.235800 17.380800
Na 15.339800 13.160400 14.883900
Na 17.010700 16.204100 13.460300
Na 17.751600 15.885300 16.592000
Na 20.184600 15.253600 11.602100

