Na7 
1.0
3.0693000068800000e+01 0.0000000000000000e+00 0.0000000000000000e+00 
0.0000000000000000e+00 3.0693000068800000e+01 0.0000000000000000e+00 
0.0000000000000000e+00 0.0000000000000000e+00 3.0693000068800000e+01 
Na 
7 
Cartesian
  13.9498000000   16.8502000000   14.2470000000
  13.4400000000   16.1386000000   17.5475000000
  14.7825000000   13.1739000000   18.5936000000
  14.7929000000   17.1776000000   10.9251000000
  16.9058000000   11.7250000000   16.1370000000
  16.8229000000   14.9105000000   16.5582000000
  16.7315000000   17.4497000000   13.4171000000
