%nproc=15
#P B3LYP/6-311+g(d) force

DPGEN

0 2
Na 12.687500 9.243910 10.041800
Na 8.493020 13.917800 9.979300
Na 10.744800 12.120600 8.913040
Na 15.700300 9.097240 11.967500
Na 9.556420 14.329300 13.520200
Na 14.465600 11.385900 14.041700
Na 12.008100 13.561000 15.192300

