%nproc=15
#P B3LYP/6-311+g(d) force

DPGEN

0 2
Na 16.375600 12.518700 12.798600
Na 14.689600 8.037680 9.169210
Na 14.806500 11.637900 10.012100
Na 15.270700 15.011600 15.048800
Na 10.563000 18.929500 15.057600
Na 13.265100 13.223400 16.570800
Na 10.284100 15.895700 16.597300

