%nproc=15
#P B3LYP/6-311+g(d) force

DPGEN

0 2
Na 13.118300 15.610100 10.980700
Na 12.950800 11.035600 14.798900
Na 14.016800 14.630400 14.311700
Na 11.764000 12.823700 12.456100
Na 16.335900 11.406000 15.803100
Na 10.880600 16.116700 13.624600
Na 15.403800 12.847700 12.495100

