%nproc=15
#P B3LYP/6-311+g(d) force

DPGEN

0 2
Na 12.657400 12.766900 10.709600
Na 10.192100 14.427300 12.974700
Na 16.108500 12.014200 12.393700
Na 13.652000 14.211000 14.394200
Na 14.810500 9.990490 11.105700
Na 11.421900 11.125100 13.908400
Na 8.168690 12.476100 11.524700

