%nproc=15
#P B3LYP/6-311+g(d) force

DPGEN

0 2
Na 11.651600 15.073400 13.257900
Na 14.230700 12.339200 14.927100
Na 12.938700 15.472700 16.524700
Na 14.592700 14.135900 11.435900
Na 14.699100 15.932000 13.928900
Na 17.196400 13.619200 13.823500
Na 15.902600 14.639300 17.313700

