Na7 
1.0
3.0693000068800000e+01 0.0000000000000000e+00 0.0000000000000000e+00 
0.0000000000000000e+00 3.0693000068800000e+01 0.0000000000000000e+00 
0.0000000000000000e+00 0.0000000000000000e+00 3.0693000068800000e+01 
Na 
7 
Cartesian
  12.7978000000   15.5223000000   14.8328000000
  12.0167000000   13.6415000000   11.9841000000
  14.2342000000   10.9650000000   12.2628000000
  15.9430000000   13.5278000000   13.4070000000
  15.9332000000   17.3348000000   14.7005000000
  17.9053000000   18.5143000000   18.6652000000
  18.5954000000   17.9199000000   21.5731000000
