Na7 
1.0
2.5540876513400001e+01 0.0000000000000000e+00 0.0000000000000000e+00 
0.0000000000000000e+00 2.5540876513400001e+01 0.0000000000000000e+00 
0.0000000000000000e+00 0.0000000000000000e+00 2.5540876513400001e+01 
Na 
7 
Cartesian
  14.4420000000   10.4915000000   12.9440000000
  13.1150000000   15.5692000000   13.3667000000
  12.1817000000   12.4140000000   14.3655000000
  13.2475000000   13.3024000000   10.7467000000
  11.2020000000   10.7589000000   11.4614000000
  15.5900000000   13.3381000000   14.0697000000
   9.6148900000   13.5190000000   12.4391000000
