%nproc=15
#P B3LYP/6-311+g(d) force

DPGEN

0 2
Na 16.358600 17.699600 16.023100
Na 14.550000 15.373100 17.882800
Na 16.112500 14.161500 14.988400
Na 12.954200 15.593500 15.101600
Na 18.665700 15.709700 14.483800
Na 15.732400 16.668500 13.393200
Na 13.052100 12.219700 15.552400

