Na7 
1.0
3.0693000068800000e+01 0.0000000000000000e+00 0.0000000000000000e+00 
0.0000000000000000e+00 3.0693000068800000e+01 0.0000000000000000e+00 
0.0000000000000000e+00 0.0000000000000000e+00 3.0693000068800000e+01 
Na 
7 
Cartesian
  14.9912000000   17.1401000000   17.7086000000
  17.3263000000   16.2185000000   15.1247000000
  16.0068000000   13.0637000000   14.5907000000
  13.3382000000   14.5698000000   15.8329000000
  13.2078000000   11.3469000000   14.8220000000
  14.8082000000   16.1773000000   12.1762000000
  17.7471000000   18.9092000000   17.1705000000
