Na7 
1.0
3.0693000068800000e+01 0.0000000000000000e+00 0.0000000000000000e+00 
0.0000000000000000e+00 3.0693000068800000e+01 0.0000000000000000e+00 
0.0000000000000000e+00 0.0000000000000000e+00 3.0693000068800000e+01 
Na 
7 
Cartesian
  13.7303000000   16.6114000000   15.7857000000
  17.4955000000   17.3006000000   16.3811000000
  15.7435000000   13.9009000000   13.7809000000
  14.1300000000   12.2532000000   16.5220000000
  12.6254000000   13.6049000000   13.7196000000
  18.9985000000   14.3388000000   14.2638000000
  14.7022000000   19.4157000000   16.9724000000
