Na7 
1.0
2.3128980217300001e+01 0.0000000000000000e+00 0.0000000000000000e+00 
0.0000000000000000e+00 2.3128980217300001e+01 0.0000000000000000e+00 
0.0000000000000000e+00 0.0000000000000000e+00 2.3128980217300001e+01 
Na 
7 
Cartesian
  11.5571000000   11.6559000000    9.9361600000
  11.4600000000    8.8128100000   11.3466000000
   8.9889600000   10.8010000000   12.0305000000
   9.7778500000   13.8361000000   11.2961000000
  11.6164000000   11.5971000000   13.1583000000
  13.3935000000   13.7287000000   11.6558000000
  14.1576000000   10.5198000000   11.5279000000
