Na7 
1.0
2.7315113737899999e+01 0.0000000000000000e+00 0.0000000000000000e+00 
0.0000000000000000e+00 2.7315113737899999e+01 0.0000000000000000e+00 
0.0000000000000000e+00 0.0000000000000000e+00 2.7315113737899999e+01 
Na 
7 
Cartesian
  11.1422000000   15.4056000000   12.4476000000
  14.1396000000   12.7055000000   17.2577000000
  14.5827000000   10.9276000000   14.2430000000
  14.4156000000   15.5369000000   10.6500000000
  16.5213000000   13.5661000000   11.7373000000
  13.5384000000   15.4643000000   14.8393000000
  11.2630000000   11.9969000000   14.4280000000
