Na7 
1.0
3.0693000068800000e+01 0.0000000000000000e+00 0.0000000000000000e+00 
0.0000000000000000e+00 3.0693000068800000e+01 0.0000000000000000e+00 
0.0000000000000000e+00 0.0000000000000000e+00 3.0693000068800000e+01 
Na 
7 
Cartesian
  16.5403000000   17.1002000000   12.9556000000
  16.7254000000   14.5039000000   15.3300000000
  16.8596000000   14.0224000000   18.1558000000
  14.4551000000   13.9596000000   12.7641000000
  13.6931000000   13.8706000000   16.6460000000
  15.5669000000   17.4544000000   16.9424000000
  13.5851000000   16.5143000000   14.6316000000
