Na7 
1.0
3.0693000068800000e+01 0.0000000000000000e+00 0.0000000000000000e+00 
0.0000000000000000e+00 3.0693000068800000e+01 0.0000000000000000e+00 
0.0000000000000000e+00 0.0000000000000000e+00 3.0693000068800000e+01 
Na 
7 
Cartesian
  14.8548000000   14.1554000000   14.8516000000
  16.5939000000   17.1809000000   13.6398000000
  11.8999000000   14.8513000000   14.8925000000
  17.1815000000   14.1522000000   17.4363000000
  14.4134000000   14.7007000000   18.5374000000
  13.8204000000   15.3423000000   12.1534000000
  18.6616000000   17.0427000000   15.9145000000
