%nproc=15
#P B3LYP/6-311+g(d) force

DPGEN

0 2
Na 14.286500 15.995900 15.322300
Na 13.194900 18.338800 17.935900
Na 14.450300 15.372000 18.311100
Na 17.638500 14.223000 15.981500
Na 16.550800 14.803100 12.393700
Na 16.109900 12.223000 17.649200
Na 15.194700 16.469700 9.831840

