%nproc=15
#P B3LYP/6-311+g(d) force

DPGEN

0 2
Na 12.977300 12.837500 14.308500
Na 13.719100 12.740100 10.543900
Na 11.616300 10.149100 13.194100
Na 14.865800 15.160100 12.817200
Na 14.461400 15.638100 16.452500
Na 14.677300 10.369100 12.845000
Na 11.983700 17.406800 14.139600

