Na7 
1.0
2.9109988286099998e+01 0.0000000000000000e+00 0.0000000000000000e+00 
0.0000000000000000e+00 2.9109988286099998e+01 0.0000000000000000e+00 
0.0000000000000000e+00 0.0000000000000000e+00 2.9109988286099998e+01 
Na 
7 
Cartesian
  15.2146000000   15.4169000000   13.5958000000
  12.0377000000   16.0434000000   13.7992000000
  14.5260000000   16.8451000000   16.8733000000
  16.7136000000   12.7007000000   12.9311000000
  17.0535000000   14.3533000000   16.3439000000
  12.9480000000   13.2685000000   12.3131000000
  13.3915000000   13.2571000000   16.0286000000
