%nproc=15
#P B3LYP/6-311+g(d) force

DPGEN

0 2
Na 11.205300 9.364360 12.460300
Na 10.193100 12.223400 14.394500
Na 10.815300 11.828700 10.944000
Na 14.345700 10.428600 10.939000
Na 13.482900 12.255800 13.561300
Na 13.613500 13.462100 10.163900
Na 11.111500 15.204400 12.304200

