Na7 
1.0
3.0693000068800000e+01 0.0000000000000000e+00 0.0000000000000000e+00 
0.0000000000000000e+00 3.0693000068800000e+01 0.0000000000000000e+00 
0.0000000000000000e+00 0.0000000000000000e+00 3.0693000068800000e+01 
Na 
7 
Cartesian
  15.0033000000   13.8422000000   14.5789000000
  17.0201000000   16.1257000000   13.1497000000
  11.2245000000   14.4907000000   15.4185000000
  17.3365000000   15.0953000000   17.2140000000
  14.0917000000   14.6517000000   18.0603000000
  13.3248000000   16.4673000000   13.5406000000
  19.4245000000   16.7526000000   15.4635000000
