%nproc=15
#P B3LYP/6-311+g(d) force

DPGEN

0 2
Na 10.553700 10.850200 10.994400
Na 13.802200 12.815800 15.439000
Na 14.343700 11.284200 11.523300
Na 11.062100 10.503200 14.195400
Na 14.438700 14.395000 12.264400
Na 11.766700 13.912400 9.775950
Na 11.441100 13.647300 13.215700

