%nproc=15
#P B3LYP/6-311+g(d) force

DPGEN

0 2
Na 12.269700 15.327600 13.357300
Na 18.251300 15.773200 17.789600
Na 17.273500 17.846400 15.592100
Na 15.674600 16.839100 12.307000
Na 16.188600 13.339500 16.920100
Na 12.719200 12.706900 15.874600
Na 15.048600 15.592800 15.584700

