Na7 
1.0
2.7477052742600002e+01 0.0000000000000000e+00 0.0000000000000000e+00 
0.0000000000000000e+00 2.7477052742600002e+01 0.0000000000000000e+00 
0.0000000000000000e+00 0.0000000000000000e+00 2.7477052742600002e+01 
Na 
7 
Cartesian
  11.0664000000   13.6452000000   14.8444000000
  14.6191000000   12.2645000000   10.2960000000
  13.7635000000   14.7804000000   12.7263000000
  16.9423000000   16.0580000000   15.7505000000
  13.3249000000   15.3695000000   16.3109000000
  14.7925000000   12.7093000000   14.2191000000
  11.6610000000   11.3429000000   12.0224000000
