Na7 
1.0
3.0693000068800000e+01 0.0000000000000000e+00 0.0000000000000000e+00 
0.0000000000000000e+00 3.0693000068800000e+01 0.0000000000000000e+00 
0.0000000000000000e+00 0.0000000000000000e+00 3.0693000068800000e+01 
Na 
7 
Cartesian
  16.4707000000   16.9715000000   14.9360000000
  16.9764000000   18.2757000000   17.9325000000
  16.5499000000   15.3796000000   19.1147000000
  14.5518000000   14.3068000000   15.9969000000
  14.5673000000   15.3248000000   12.1883000000
  16.4491000000   12.2426000000   17.4990000000
  11.8603000000   14.9245000000    9.7580000000
