%nproc=15
#P B3LYP/6-311+g(d) force

DPGEN

0 2
Na 15.457900 16.238400 16.614000
Na 9.353660 14.094100 16.953700
Na 11.941200 15.251500 15.813000
Na 14.595800 13.186400 14.414600
Na 17.731900 14.370600 14.988700
Na 18.137400 17.774900 15.557600
Na 20.207700 16.509600 13.083900

