%nproc=15
#P B3LYP/6-311+g(d) force

DPGEN

0 2
Na 15.237200 16.420700 12.728600
Na 18.844300 16.954700 12.994100
Na 15.026200 12.766500 17.924100
Na 13.577100 19.012400 11.641000
Na 13.684900 12.066000 20.746700
Na 17.077900 15.102100 15.591400
Na 13.977800 15.103100 15.799600

