Na7 
1.0
3.0693000068800000e+01 0.0000000000000000e+00 0.0000000000000000e+00 
0.0000000000000000e+00 3.0693000068800000e+01 0.0000000000000000e+00 
0.0000000000000000e+00 0.0000000000000000e+00 3.0693000068800000e+01 
Na 
7 
Cartesian
  14.4689000000   14.0187000000   13.7698000000
  16.7245000000   12.6844000000   11.4682000000
  17.5400000000   14.9642000000   13.5420000000
  18.4031000000   18.0568000000   14.9627000000
  16.2159000000   16.1679000000   16.4239000000
  13.0000000000   16.4593000000   17.1147000000
  11.0731000000   15.0741000000   20.1442000000
