Na7 
1.0
2.4904259062500000e+01 0.0000000000000000e+00 0.0000000000000000e+00 
0.0000000000000000e+00 2.4904259062500000e+01 0.0000000000000000e+00 
0.0000000000000000e+00 0.0000000000000000e+00 2.4904259062500000e+01 
Na 
7 
Cartesian
  11.9765000000   11.2521000000    9.8017700000
  12.1210000000   14.8336000000   10.8139000000
  15.1879000000   13.1285000000   10.9008000000
  13.2459000000   10.2408000000   12.8143000000
  10.0532000000   11.7748000000   13.0341000000
  11.6394000000   12.1773000000   16.1291000000
  12.9409000000   13.7578000000   13.6710000000
