Na7 
1.0
3.0693000068800000e+01 0.0000000000000000e+00 0.0000000000000000e+00 
0.0000000000000000e+00 3.0693000068800000e+01 0.0000000000000000e+00 
0.0000000000000000e+00 0.0000000000000000e+00 3.0693000068800000e+01 
Na 
7 
Cartesian
  14.9533000000   16.7866000000   12.9229000000
  18.5441000000   14.6318000000   12.2084000000
  14.3825000000   13.5479000000   17.1547000000
  13.8643000000   19.0310000000   14.3872000000
  16.1772000000   13.5827000000   20.1230000000
  16.7742000000   13.6075000000   14.6131000000
  12.7299000000   16.2381000000   16.0163000000
