Na7 
1.0
2.4223964285699999e+01 0.0000000000000000e+00 0.0000000000000000e+00 
0.0000000000000000e+00 2.4223964285699999e+01 0.0000000000000000e+00 
0.0000000000000000e+00 0.0000000000000000e+00 2.4223964285699999e+01 
Na 
7 
Cartesian
  14.1845000000   13.3090000000   15.2808000000
  12.5997000000   12.3270000000   12.3091000000
  14.5028000000   11.9273000000    8.2800700000
  10.3735000000   12.3835000000   14.5764000000
  11.2965000000   13.0205000000    8.6067400000
  12.8325000000    9.8405400000   14.7040000000
   8.9944700000   11.9760000000   11.0268000000
