Na7 
1.0
3.0693000068800000e+01 0.0000000000000000e+00 0.0000000000000000e+00 
0.0000000000000000e+00 3.0693000068800000e+01 0.0000000000000000e+00 
0.0000000000000000e+00 0.0000000000000000e+00 3.0693000068800000e+01 
Na 
7 
Cartesian
  14.5466000000   13.3077000000   15.0152000000
  16.8206000000   15.7576000000   13.1927000000
  11.4883000000   14.7304000000   15.5769000000
  17.0145000000   16.1331000000   16.4464000000
  13.8149000000   13.8812000000   18.1534000000
  13.8683000000   17.1060000000   14.3920000000
  19.8724000000   16.5095000000   14.6489000000
