Na7 
1.0
2.3172029543099999e+01 0.0000000000000000e+00 0.0000000000000000e+00 
0.0000000000000000e+00 2.3172029543099999e+01 0.0000000000000000e+00 
0.0000000000000000e+00 0.0000000000000000e+00 2.3172029543099999e+01 
Na 
7 
Cartesian
  11.8314000000   15.2866000000   12.5528000000
  11.9114000000    9.9635700000    8.4226500000
  10.0972000000   12.4458000000   11.8450000000
  13.3411000000   12.9194000000    9.9765900000
  11.6275000000    8.8145200000   11.4746000000
   9.3774500000   10.0759000000   13.4405000000
  12.9160000000   11.5964000000   13.3900000000
