Na7 
1.0
3.0693000068800000e+01 0.0000000000000000e+00 0.0000000000000000e+00 
0.0000000000000000e+00 3.0693000068800000e+01 0.0000000000000000e+00 
0.0000000000000000e+00 0.0000000000000000e+00 3.0693000068800000e+01 
Na 
7 
Cartesian
  13.2995000000   16.0767000000   13.6239000000
  16.2300000000   17.1846000000   15.2733000000
  18.4360000000   14.5146000000   17.1687000000
  16.8624000000   14.0367000000   13.8733000000
  13.5132000000   13.2899000000   12.2098000000
  15.5038000000   14.8319000000   18.8077000000
  13.5806000000   17.4911000000   16.4687000000
