%nproc=15
#P B3LYP/6-311+g(d) force

DPGEN

0 2
Na 15.454100 17.297400 13.600400
Na 18.734300 17.058700 13.252700
Na 15.467700 13.118600 18.293100
Na 13.668200 18.511100 10.912400
Na 13.373900 11.769600 20.185900
Na 16.900500 15.330300 15.963700
Na 13.826900 14.339900 15.217300

