%nproc=15
#P B3LYP/6-311+g(d) force

DPGEN

0 2
Na 10.651100 14.041100 12.519200
Na 11.862900 12.355800 14.195200
Na 9.604530 11.260700 12.337100
Na 11.803800 12.267300 10.460300
Na 13.649900 14.084200 12.342300
Na 13.240400 10.619800 12.411600
Na 15.910100 12.093900 12.457000

