Na7 
1.0
3.0693000068800000e+01 0.0000000000000000e+00 0.0000000000000000e+00 
0.0000000000000000e+00 3.0693000068800000e+01 0.0000000000000000e+00 
0.0000000000000000e+00 0.0000000000000000e+00 3.0693000068800000e+01 
Na 
7 
Cartesian
  13.0376000000   15.5578000000   14.3177000000
  16.6146000000   16.1281000000   15.8114000000
  17.8456000000   13.5976000000   16.6810000000
  15.8494000000   13.6441000000   13.4235000000
  13.1914000000   13.8778000000   11.5241000000
  17.0322000000   16.6940000000   18.8098000000
  13.8547000000   17.9262000000   16.8580000000
