%nproc=15
#P B3LYP/6-311+g(d) force

DPGEN

0 2
Na 13.995400 14.318000 14.095000
Na 15.674700 12.719500 11.560500
Na 17.628300 15.001700 13.717000
Na 19.285400 17.642500 15.587100
Na 15.612500 16.961100 15.282900
Na 13.070800 15.510700 17.171700
Na 12.158400 15.272000 20.011300

