Na7 
1.0
2.4517262604500001e+01 0.0000000000000000e+00 0.0000000000000000e+00 
0.0000000000000000e+00 2.4517262604500001e+01 0.0000000000000000e+00 
0.0000000000000000e+00 0.0000000000000000e+00 2.4517262604500001e+01 
Na 
7 
Cartesian
  10.7084000000   12.6552000000   10.5936000000
   9.2673900000   15.5159000000   13.0174000000
  16.3383000000   11.0522000000   11.1490000000
  10.9439000000   13.2938000000   14.3199000000
  12.8559000000   10.5509000000   12.2510000000
  11.7599000000    9.6077700000   15.0090000000
  13.9366000000   13.1347000000    9.4706400000
