Na7 
1.0
2.5603925924500000e+01 0.0000000000000000e+00 0.0000000000000000e+00 
0.0000000000000000e+00 2.5603925924500000e+01 0.0000000000000000e+00 
0.0000000000000000e+00 0.0000000000000000e+00 2.5603925924500000e+01 
Na 
7 
Cartesian
  12.7058000000   16.1392000000   11.4727000000
  11.2662000000   10.9451000000   12.9420000000
  13.7109000000   10.0668000000   15.3413000000
  15.5056000000   11.0651000000   12.9866000000
  13.1200000000   12.7912000000   10.6145000000
   9.9136300000   14.6817000000   12.0093000000
  13.3917000000   13.9247000000   14.2472000000
