Na7 
1.0
2.3147300798600000e+01 0.0000000000000000e+00 0.0000000000000000e+00 
0.0000000000000000e+00 2.3147300798600000e+01 0.0000000000000000e+00 
0.0000000000000000e+00 0.0000000000000000e+00 2.3147300798600000e+01 
Na 
7 
Cartesian
  11.4821000000   11.3974000000   12.1873000000
  13.8389000000    9.4433700000   13.6401000000
   7.4782000000   12.5106000000   12.2152000000
   8.8910600000   10.8132000000    9.7210100000
  11.9213000000   13.6150000000    9.9910100000
  13.2143000000   10.0107000000   10.2555000000
  14.1897000000   13.2253000000   13.0054000000
