%nproc=15
#P B3LYP/6-311+g(d) force

DPGEN

0 2
Na 14.667200 17.523000 15.827100
Na 11.986300 16.667400 18.308600
Na 13.086500 13.905300 16.723000
Na 15.587800 12.749600 15.039400
Na 16.766100 15.891600 13.328700
Na 16.955400 15.729900 17.202100
Na 18.376200 14.958700 10.996700

