%nproc=15
#P B3LYP/6-311+g(d) force

DPGEN

0 2
Na 9.854610 11.883200 13.486900
Na 12.854200 10.436100 13.894300
Na 9.435350 14.191900 10.552200
Na 12.142900 12.497500 11.555300
Na 11.916800 13.097000 16.160400
Na 15.156300 13.499000 9.708730
Na 15.051100 10.806500 11.053300

