%nproc=15
#P B3LYP/6-311+g(d) force

DPGEN

0 2
Na 17.149100 16.266100 14.641100
Na 15.997300 12.760800 16.574300
Na 14.832700 15.176900 18.777400
Na 13.907500 16.333600 12.342800
Na 15.326700 13.327700 13.012700
Na 16.185900 17.940000 16.634200
Na 14.026300 15.620300 15.443000

