Na7 
1.0
2.4705546276000000e+01 0.0000000000000000e+00 0.0000000000000000e+00 
0.0000000000000000e+00 2.4705546276000000e+01 0.0000000000000000e+00 
0.0000000000000000e+00 0.0000000000000000e+00 2.4705546276000000e+01 
Na 
7 
Cartesian
  14.2392000000   12.2804000000   13.8841000000
  11.7446000000   12.4493000000   11.1248000000
   8.8678100000   12.4329000000   11.9440000000
  11.2418000000   11.9776000000   13.9369000000
  12.6773000000   14.5806000000   12.5373000000
  13.1502000000   10.0848000000   12.2214000000
  14.5485000000   12.6638000000   10.8210000000
