Na7 
1.0
2.6178245737200001e+01 0.0000000000000000e+00 0.0000000000000000e+00 
0.0000000000000000e+00 2.6178245737200001e+01 0.0000000000000000e+00 
0.0000000000000000e+00 0.0000000000000000e+00 2.6178245737200001e+01 
Na 
7 
Cartesian
  10.5442000000   13.9198000000   15.1408000000
  16.3609000000   12.7447000000   15.6222000000
  16.8468000000   12.3247000000   12.4267000000
  14.3231000000   12.1953000000    9.9937900000
  14.0776000000   14.6439000000   16.5446000000
  10.7279000000   12.3984000000    9.4082500000
   8.7432700000   13.3971000000   12.4876000000
