Na7 
1.0
2.6991575798800000e+01 0.0000000000000000e+00 0.0000000000000000e+00 
0.0000000000000000e+00 2.6991575798800000e+01 0.0000000000000000e+00 
0.0000000000000000e+00 0.0000000000000000e+00 2.6991575798800000e+01 
Na 
7 
Cartesian
  13.1042000000   11.7907000000   14.3199000000
  14.4344000000   11.4291000000   10.9871000000
  11.4905000000   15.5795000000   15.0988000000
  10.8379000000   13.1676000000   13.0014000000
  13.6660000000   15.3480000000   11.9909000000
  14.4346000000   14.3705000000   15.6807000000
  16.5029000000   12.7852000000   13.3918000000
