%nproc=1
#B3LYP/6-311+g(d) force

Na7

0 2
Na 9.527813 0.000000 1.928402
Na 11.269891 2.193267 0.857727
Na 9.281253 4.397489 0.414349
Na 7.053284 4.508237 2.422771
Na 4.774251 2.731051 1.631674
Na 2.402501 1.885789 0.000000
Na 0.000000 2.436127 1.712759

