Na7 
1.0
3.0693000068800000e+01 0.0000000000000000e+00 0.0000000000000000e+00 
0.0000000000000000e+00 3.0693000068800000e+01 0.0000000000000000e+00 
0.0000000000000000e+00 0.0000000000000000e+00 3.0693000068800000e+01 
Na 
7 
Cartesian
  18.0871000000   14.1002000000   16.4309000000
  20.4076000000   13.4753000000   14.1080000000
  19.0231000000   17.0698000000   14.6443000000
  16.7946000000   17.4068000000   17.2306000000
  14.1308000000   15.7391000000   15.7057000000
  10.7527000000   15.3691000000   14.9691000000
   8.2295200000   14.2652000000   14.3371000000
