Na7 
1.0
2.3916338720399999e+01 0.0000000000000000e+00 0.0000000000000000e+00 
0.0000000000000000e+00 2.3916338720399999e+01 0.0000000000000000e+00 
0.0000000000000000e+00 0.0000000000000000e+00 2.3916338720399999e+01 
Na 
7 
Cartesian
  12.1423000000   11.3334000000   13.5097000000
  11.6474000000   12.1966000000   10.4329000000
  13.4965000000   14.4184000000   12.4642000000
  15.3804000000   11.4015000000   10.9461000000
  13.0516000000    9.0880000000   11.2190000000
   8.2212400000   11.1981000000   12.2623000000
   9.7678600000   14.0711000000   12.8729000000
