Na7 
1.0
2.5386964031200002e+01 0.0000000000000000e+00 0.0000000000000000e+00 
0.0000000000000000e+00 2.5386964031200002e+01 0.0000000000000000e+00 
0.0000000000000000e+00 0.0000000000000000e+00 2.5386964031200002e+01 
Na 
7 
Cartesian
  13.3127000000   13.8685000000   11.2345000000
  12.5156000000   11.9887000000   14.4346000000
  16.2628000000   13.7269000000   13.9010000000
  15.6107000000   10.7364000000   12.4466000000
  11.6562000000   10.4868000000   11.8406000000
   9.5551000000   12.7963000000   11.6948000000
   9.9413300000   15.2507000000   13.3023000000
