%nproc=15
#P B3LYP/6-311+g(d) force

DPGEN

0 2
Na 13.420100 16.248500 15.179400
Na 14.586500 18.257100 17.879500
Na 15.034400 14.991300 18.838400
Na 16.561300 14.571200 15.458200
Na 15.796700 14.390700 12.072000
Na 16.533400 12.234600 18.464100
Na 15.493100 16.732100 9.533970

