Na7 
1.0
3.0693000068800000e+01 0.0000000000000000e+00 0.0000000000000000e+00 
0.0000000000000000e+00 3.0693000068800000e+01 0.0000000000000000e+00 
0.0000000000000000e+00 0.0000000000000000e+00 3.0693000068800000e+01 
Na 
7 
Cartesian
  15.2677000000   16.4956000000   12.7108000000
  18.7800000000   16.8942000000   13.1248000000
  15.1344000000   12.7044000000   17.9596000000
  13.5324000000   19.0277000000   11.5417000000
  13.5773000000   12.0068000000   20.8238000000
  17.1241000000   15.2085000000   15.5385000000
  14.0096000000   15.0883000000   15.7263000000
