%nproc=15
#P B3LYP/6-311+g(d) force

DPGEN

0 2
Na 9.103050 14.438700 11.942200
Na 14.462800 13.823300 15.350500
Na 17.562300 12.371300 15.224700
Na 11.758300 11.446100 13.750300
Na 14.801600 12.184100 11.750500
Na 12.979700 14.898200 12.933000
Na 10.956000 12.462200 10.672600

