%nproc=15
#P B3LYP/6-311+g(d) force

DPGEN

0 2
Na 15.708300 13.280500 14.840500
Na 16.494700 13.006700 10.930800
Na 16.976800 15.580700 13.473700
Na 18.637000 18.457000 15.885000
Na 16.458500 16.252500 16.751400
Na 12.916400 14.956200 16.823100
Na 10.233900 15.891900 18.721000

