Na7 
1.0
2.5668002796600000e+01 0.0000000000000000e+00 0.0000000000000000e+00 
0.0000000000000000e+00 2.5668002796600000e+01 0.0000000000000000e+00 
0.0000000000000000e+00 0.0000000000000000e+00 2.5668002796600000e+01 
Na 
7 
Cartesian
  13.4527000000   12.3970000000   14.7102000000
  13.7766000000   14.5282000000   12.2121000000
  12.6498000000    9.2583800000   12.5952000000
  11.3601000000   12.0166000000   11.5115000000
  12.2260000000   15.0053000000   15.4403000000
  15.7830000000   11.6052000000   11.7528000000
  10.5898000000   15.0273000000   11.6160000000
