Na7 
1.0
2.5381334677600002e+01 0.0000000000000000e+00 0.0000000000000000e+00 
0.0000000000000000e+00 2.5381334677600002e+01 0.0000000000000000e+00 
0.0000000000000000e+00 0.0000000000000000e+00 2.5381334677600002e+01 
Na 
7 
Cartesian
  13.1790000000   13.2090000000   15.5749000000
  13.0586000000   11.3832000000   10.1009000000
  14.1109000000   14.1463000000   12.4682000000
  10.2640000000   14.3876000000   13.5929000000
  11.0487000000   13.3396000000   10.7223000000
  15.0310000000   11.1196000000   13.1800000000
  12.1425000000   11.2493000000   13.1954000000
