%nproc=15
#P B3LYP/6-311+g(d) force

DPGEN

0 2
Na 15.535900 14.076600 13.807900
Na 18.448200 12.931200 13.787300
Na 18.325100 16.552300 15.019000
Na 17.185100 18.864400 17.213900
Na 14.817000 16.737800 15.820600
Na 13.115200 14.182800 16.512200
Na 9.998890 14.080400 15.264500

