%nproc=15
#P B3LYP/6-311+g(d) force

DPGEN

0 2
Na 12.331100 15.951300 14.602400
Na 14.150700 17.362600 17.530600
Na 17.740300 15.974400 17.485900
Na 15.959500 16.663800 14.150600
Na 15.155400 14.088100 16.552600
Na 13.816400 13.742700 13.052500
Na 18.272200 13.642700 14.050900

