%nproc=15
#P B3LYP/6-311+g(d) force

DPGEN

0 2
Na 15.862800 18.482600 16.157200
Na 16.296800 16.558400 12.769100
Na 15.695900 12.876200 13.345800
Na 13.924000 16.300500 15.026500
Na 14.438000 12.698200 16.405000
Na 16.704900 14.669200 15.500000
Na 14.503100 15.840400 18.221900

