%nproc=15
#P B3LYP/6-311+g(d) force

DPGEN

0 2
Na 14.824600 17.567000 17.057200
Na 16.906900 15.894600 15.318900
Na 14.971300 13.354400 13.273600
Na 13.760500 14.315600 16.891600
Na 13.590900 11.279900 15.391800
Na 15.099700 16.299700 12.603800
Na 18.271700 18.714200 16.888700

