Na7 
1.0
2.4449639190599999e+01 0.0000000000000000e+00 0.0000000000000000e+00 
0.0000000000000000e+00 2.4449639190599999e+01 0.0000000000000000e+00 
0.0000000000000000e+00 0.0000000000000000e+00 2.4449639190599999e+01 
Na 
7 
Cartesian
  12.5124000000   11.4409000000   15.7112000000
  11.9215000000   11.9424000000   12.6508000000
  12.2690000000   10.9624000000    9.5031700000
  13.0110000000   13.9126000000    9.9530100000
  10.6135000000    9.1299400000   13.7201000000
  15.0484000000   13.2371000000   12.4089000000
  10.1980000000   14.9485000000   11.6265000000
