%nproc=15
#P B3LYP/6-311+g(d) force

DPGEN

0 2
Na 11.324200 8.916900 12.066400
Na 11.671300 11.764000 13.362800
Na 10.036900 13.738800 11.135700
Na 13.238200 13.471400 11.239100
Na 8.884360 10.908100 11.546000
Na 13.954500 10.440100 11.451300
Na 11.377900 11.248000 9.686070

