Na7 
1.0
3.0693000068800000e+01 0.0000000000000000e+00 0.0000000000000000e+00 
0.0000000000000000e+00 3.0693000068800000e+01 0.0000000000000000e+00 
0.0000000000000000e+00 0.0000000000000000e+00 3.0693000068800000e+01 
Na 
7 
Cartesian
  15.1321000000   13.9692000000   14.5132000000
  16.8031000000   16.1470000000   13.1255000000
  11.5128000000   14.4969000000   15.5305000000
  17.4921000000   14.7492000000   17.3956000000
  13.7544000000   14.7437000000   17.9935000000
  13.2149000000   16.3634000000   13.2310000000
  19.5161000000   16.9561000000   15.6362000000
