%nproc=15
#P B3LYP/6-311+g(d) force

DPGEN

0 2
Na 14.011600 15.780300 13.067900
Na 12.820300 13.306800 11.601100
Na 15.534100 11.491300 11.037300
Na 15.342500 13.567100 15.087700
Na 15.203100 16.931300 16.744300
Na 17.556600 18.210600 18.350800
Na 16.957200 18.138100 21.536400

