%nproc=15
#P B3LYP/6-311+g(d) force

DPGEN

0 2
Na 13.219200 16.153900 12.204000
Na 15.399200 14.098300 10.480400
Na 16.359700 13.068500 13.826400
Na 17.614800 15.061300 15.886800
Na 14.208700 15.139000 15.727700
Na 14.833000 15.468700 18.885100
Na 15.790900 18.435800 20.415200

