%nproc=15
#P B3LYP/6-311+g(d) force

DPGEN

0 2
Na 13.844300 15.404100 12.266300
Na 10.230000 11.276600 12.001600
Na 13.521200 12.130700 11.167300
Na 11.367900 14.239000 10.753100
Na 12.793200 9.864200 14.262500
Na 12.162300 13.668900 14.212100
Na 15.295100 12.630600 14.551200

