%nproc=15
#P B3LYP/6-311+g(d) force

DPGEN

0 2
Na 14.405600 17.498700 16.995000
Na 11.972000 14.989800 16.725500
Na 15.395900 14.703900 16.302100
Na 17.619600 13.769800 13.866900
Na 18.003200 16.813300 15.878600
Na 15.229000 17.198400 13.956400
Na 14.800300 12.451700 13.700900

