Na7 
1.0
3.0693000068800000e+01 0.0000000000000000e+00 0.0000000000000000e+00 
0.0000000000000000e+00 3.0693000068800000e+01 0.0000000000000000e+00 
0.0000000000000000e+00 0.0000000000000000e+00 3.0693000068800000e+01 
Na 
7 
Cartesian
  14.7801000000   16.4868000000   17.4135000000
  15.9553000000   17.5769000000   14.1359000000
  14.3644000000   14.7312000000   14.6540000000
  12.4259000000   17.8126000000   15.2718000000
  15.4527000000   13.2237000000   17.3360000000
  16.6916000000   12.0262000000   13.3646000000
  17.7555000000   15.5681000000   15.2497000000
