Na7 
1.0
3.0693000068800000e+01 0.0000000000000000e+00 0.0000000000000000e+00 
0.0000000000000000e+00 3.0693000068800000e+01 0.0000000000000000e+00 
0.0000000000000000e+00 0.0000000000000000e+00 3.0693000068800000e+01 
Na 
7 
Cartesian
  12.1687000000   16.8651000000   15.5709000000
  16.1193000000   13.7767000000   17.7852000000
  13.4165000000   14.1409000000   15.4118000000
  15.6374000000   17.0352000000   16.5580000000
  18.4072000000   16.0988000000   14.1407000000
  16.7222000000   13.5458000000   14.8418000000
  14.9544000000   15.9630000000   13.1171000000
