%nproc=15
#P B3LYP/6-311+g(d) force

DPGEN

0 2
Na 11.766900 11.241200 13.783800
Na 16.448100 11.815300 12.981100
Na 11.041500 13.803000 15.406400
Na 10.624900 15.743700 12.528000
Na 13.570200 13.867900 12.647400
Na 16.504700 15.341200 10.849500
Na 14.197200 12.341100 15.957100

