%nproc=15
#P B3LYP/6-311+g(d) force

DPGEN

0 2
Na 17.985000 16.554400 16.458100
Na 15.262900 15.233500 17.655500
Na 15.600000 15.183600 14.440100
Na 13.025000 16.777800 16.178800
Na 18.685900 14.870600 13.703600
Na 13.224700 15.971700 12.387700
Na 13.642100 12.834000 16.601600

