%nproc=15
#P B3LYP/6-311+g(d) force

DPGEN

0 2
Na 17.055800 14.674800 16.438900
Na 16.224100 16.242300 13.384300
Na 14.581600 13.210800 13.914400
Na 15.003200 15.151100 19.190900
Na 13.347400 13.190800 16.988600
Na 14.196300 17.128400 11.254600
Na 17.017100 17.827500 16.253700

