%nproc=15
#P B3LYP/6-311+g(d) force

DPGEN

0 2
Na 15.963400 17.368700 12.827400
Na 16.793000 14.332900 11.774300
Na 14.802000 13.526400 17.724600
Na 14.034300 18.961900 14.628300
Na 16.661400 14.084400 20.276600
Na 15.105800 13.000000 14.307200
Na 14.065600 16.151200 15.887100

