%nproc=15
#P B3LYP/6-311+g(d) force

DPGEN

0 2
Na 13.113500 16.663300 13.870800
Na 12.630500 13.080400 11.803400
Na 15.245400 11.124500 11.689400
Na 15.135300 13.441100 14.020100
Na 15.759000 16.273200 15.849900
Na 18.076500 19.015600 18.748400
Na 17.465200 17.827400 21.443600

