Na7 
1.0
3.0693000068800000e+01 0.0000000000000000e+00 0.0000000000000000e+00 
0.0000000000000000e+00 3.0693000068800000e+01 0.0000000000000000e+00 
0.0000000000000000e+00 0.0000000000000000e+00 3.0693000068800000e+01 
Na 
7 
Cartesian
  15.4756000000   15.5868000000   12.7139000000
  15.9608000000   12.4785000000   11.0549000000
  18.6568000000   13.8992000000   12.3546000000
  17.5043000000   15.9234000000   15.2718000000
  13.6001000000   16.1981000000   15.7299000000
  12.7075000000   17.6369000000   18.7464000000
  13.5204000000   15.7025000000   21.5540000000
