%nproc=15
#P B3LYP/6-311+g(d) force

DPGEN

0 2
Na 8.697530 13.354300 11.544500
Na 13.961200 9.718130 11.463500
Na 11.258200 15.557700 12.294600
Na 14.964000 11.376500 14.457300
Na 10.753100 9.890690 10.111300
Na 14.541100 14.297700 13.762300
Na 11.973600 11.953800 12.515200

