%nproc=15
#P B3LYP/6-311+g(d) force

DPGEN

0 2
Na 13.014700 14.819800 13.128800
Na 14.213500 13.757900 9.877180
Na 15.606100 12.684600 12.636900
Na 16.949900 13.645500 15.604400
Na 15.004100 16.704800 15.032200
Na 15.912100 16.894900 19.623600
Na 16.725100 18.918000 21.522300

