Na7 
1.0
3.0693000068800000e+01 0.0000000000000000e+00 0.0000000000000000e+00 
0.0000000000000000e+00 3.0693000068800000e+01 0.0000000000000000e+00 
0.0000000000000000e+00 0.0000000000000000e+00 3.0693000068800000e+01 
Na 
7 
Cartesian
  14.1827000000   14.8735000000   12.2581000000
  13.6769000000   17.4591000000   14.7025000000
  16.1140000000   17.7935000000   17.3136000000
  16.3306000000   15.8703000000   14.9276000000
  16.6908000000   13.8968000000   17.6497000000
  14.0217000000   14.7470000000   16.7276000000
  16.4088000000   12.7853000000   13.8464000000
