Na7 
1.0
2.5203140515499999e+01 0.0000000000000000e+00 0.0000000000000000e+00 
0.0000000000000000e+00 2.5203140515499999e+01 0.0000000000000000e+00 
0.0000000000000000e+00 0.0000000000000000e+00 2.5203140515499999e+01 
Na 
7 
Cartesian
  15.4967000000   12.8488000000   12.7559000000
  10.2803000000   10.8977000000   11.9460000000
  13.6526000000   10.4381000000   10.7190000000
  13.4243000000   15.3956000000   14.0722000000
  12.8521000000   11.5545000000   14.2223000000
  10.4096000000   13.8005000000   13.6832000000
  12.0955000000   13.2759000000   10.8125000000
