%nproc=15
#P B3LYP/6-311+g(d) force

DPGEN

0 2
Na 14.413400 14.699500 12.820200
Na 13.993200 17.762800 14.091200
Na 14.888500 16.957100 17.721500
Na 16.710700 16.215600 14.944900
Na 16.541400 13.787800 17.673200
Na 13.912900 14.742900 15.978200
Na 16.965400 13.259700 14.196300

