Na7 
1.0
3.0693000068800000e+01 0.0000000000000000e+00 0.0000000000000000e+00 
0.0000000000000000e+00 3.0693000068800000e+01 0.0000000000000000e+00 
0.0000000000000000e+00 0.0000000000000000e+00 3.0693000068800000e+01 
Na 
7 
Cartesian
  13.4082000000   15.8135000000   13.7014000000
  16.4766000000   16.7764000000   15.2552000000
  17.6178000000   14.2018000000   17.3268000000
  15.8176000000   14.0449000000   12.8240000000
  13.2257000000   12.8676000000   11.4811000000
  17.0162000000   15.7061000000   19.7497000000
  13.8635000000   18.0153000000   17.0873000000
