Na7 
1.0
3.0693000068800000e+01 0.0000000000000000e+00 0.0000000000000000e+00 
0.0000000000000000e+00 3.0693000068800000e+01 0.0000000000000000e+00 
0.0000000000000000e+00 0.0000000000000000e+00 3.0693000068800000e+01 
Na 
7 
Cartesian
  15.5227000000   15.7346000000   12.8674000000
  18.5095000000   15.7716000000   12.1197000000
  14.2857000000   13.5589000000   17.0372000000
  13.5319000000   19.4084000000   14.2303000000
  15.6087000000   13.1278000000   20.4595000000
  16.8244000000   13.7222000000   15.1617000000
  13.1426000000   16.1020000000   15.5498000000
