%nproc=15
#P B3LYP/6-311+g(d) force

DPGEN

0 2
Na 15.384000 13.716200 14.549500
Na 17.337100 12.985700 12.062900
Na 18.304300 15.785300 15.213800
Na 18.099500 19.071200 16.879100
Na 15.729300 17.056200 16.429000
Na 12.152000 15.696900 15.928000
Na 10.419300 13.114000 16.363100

