Na7 
1.0
2.5492403712900000e+01 0.0000000000000000e+00 0.0000000000000000e+00 
0.0000000000000000e+00 2.5492403712900000e+01 0.0000000000000000e+00 
0.0000000000000000e+00 0.0000000000000000e+00 2.5492403712900000e+01 
Na 
7 
Cartesian
  12.0239000000   12.9293000000   11.6183000000
  11.7872000000   11.9789000000   15.0544000000
  14.7113000000   13.0680000000   13.6220000000
  10.0830000000   10.4693000000   12.2659000000
  12.3502000000   15.4509000000   13.5927000000
  13.4274000000    9.8541400000   11.9280000000
  14.8404000000   15.4728000000   11.1421000000
