%nproc=15
#P B3LYP/6-311+g(d) force

DPGEN

0 2
Na 12.918500 16.050300 14.521600
Na 16.666200 16.804700 15.609500
Na 17.776800 13.416200 16.119600
Na 15.736500 13.664100 13.605500
Na 11.932400 13.270900 12.361400
Na 18.618300 16.291500 18.462500
Na 13.776900 17.927900 16.745500

