Na7 
1.0
2.4233688200800000e+01 0.0000000000000000e+00 0.0000000000000000e+00 
0.0000000000000000e+00 2.4233688200800000e+01 0.0000000000000000e+00 
0.0000000000000000e+00 0.0000000000000000e+00 2.4233688200800000e+01 
Na 
7 
Cartesian
  13.2887000000   14.6774000000   12.1461000000
  11.6980000000    9.4955400000   13.4742000000
   9.7316000000   10.8878000000   10.9490000000
  10.9164000000   13.2436000000   13.1813000000
  13.4484000000   11.3298000000   11.3193000000
  11.3152000000   13.1401000000    9.3172400000
  14.4196000000   12.0437000000   14.4308000000
