%nproc=15
#P B3LYP/6-311+g(d) force

DPGEN

0 2
Na 14.089200 15.765400 13.048100
Na 12.858300 13.270800 11.546500
Na 15.532900 11.533700 11.022800
Na 15.364300 13.600300 15.134500
Na 15.023000 16.866400 16.700900
Na 17.643900 18.219400 18.414700
Na 16.913900 18.169500 21.558000

