%nproc=15
#P B3LYP/6-311+g(d) force

DPGEN

0 2
Na 15.442800 16.061600 13.545200
Na 12.171700 16.124100 14.069600
Na 14.220500 16.624900 16.760700
Na 16.333500 12.541600 13.117600
Na 16.775500 14.243000 16.198500
Na 13.148500 12.812100 12.633300
Na 13.792400 13.477600 15.560100

