%nproc=15
#P B3LYP/6-311+g(d) force

DPGEN

0 2
Na 15.154100 15.875100 15.532300
Na 17.345400 18.497000 14.963300
Na 13.302200 13.154500 12.523500
Na 15.643200 17.835500 17.890900
Na 17.394000 16.049400 12.712500
Na 14.037000 11.883100 15.145200
Na 14.549600 14.131000 18.657900

