%nproc=15
#P B3LYP/6-311+g(d) force

DPGEN

0 2
Na 13.539300 14.421100 9.989910
Na 14.276300 9.868080 14.390600
Na 11.516300 14.738000 13.609300
Na 10.542700 13.330500 10.620600
Na 12.542500 11.576100 11.855200
Na 12.035100 11.887800 15.450200
Na 15.050700 13.681300 13.587200

