Na7 
1.0
3.0693000068800000e+01 0.0000000000000000e+00 0.0000000000000000e+00 
0.0000000000000000e+00 3.0693000068800000e+01 0.0000000000000000e+00 
0.0000000000000000e+00 0.0000000000000000e+00 3.0693000068800000e+01 
Na 
7 
Cartesian
  16.2466000000   17.5235000000   13.6925000000
  17.1569000000   14.3733000000   15.1871000000
  14.7882000000   14.8150000000   18.0383000000
  14.9827000000   14.6091000000   12.3839000000
  13.6458000000   12.7029000000   15.5870000000
  16.7727000000   17.2546000000   16.9193000000
  13.8326000000   16.1471000000   15.6173000000
