%nproc=15
#P B3LYP/6-311+g(d) force

DPGEN

0 2
Na 13.113700 17.197700 13.640300
Na 10.461000 13.115800 14.583300
Na 13.476200 13.484400 13.295300
Na 16.628200 13.232200 13.590500
Na 15.885900 15.649200 15.403700
Na 18.017400 16.315900 18.834900
Na 19.843100 18.430200 18.077300

