%nproc=15
#P B3LYP/6-311+g(d) force

DPGEN

0 2
Na 14.849100 10.554000 12.503300
Na 12.120100 13.394000 12.092100
Na 8.607490 13.815000 11.503000
Na 10.697200 10.437700 12.413500
Na 12.991400 10.182100 15.164900
Na 10.526500 13.493400 8.908540
Na 12.706700 10.622300 9.913190

