%nproc=15
#P B3LYP/6-311+g(d) force

DPGEN

0 2
Na 12.202300 13.714100 13.863700
Na 12.149200 9.009800 10.561100
Na 10.689900 11.685800 12.358200
Na 12.901300 9.890820 13.872300
Na 12.781800 13.130500 10.038900
Na 9.484410 15.481100 11.617700
Na 14.609000 11.905800 12.506100

