Na7 
1.0
2.4990815901300000e+01 0.0000000000000000e+00 0.0000000000000000e+00 
0.0000000000000000e+00 2.4990815901300000e+01 0.0000000000000000e+00 
0.0000000000000000e+00 0.0000000000000000e+00 2.4990815901300000e+01 
Na 
7 
Cartesian
  11.2496000000   15.8903000000   13.3057000000
  12.4117000000   13.2935000000   10.0619000000
  10.7460000000   12.2848000000   13.0171000000
  11.0648000000   13.4230000000   16.1533000000
  12.5493000000    9.7207600000   14.0171000000
  13.1192000000   10.4564000000   11.0050000000
  16.3273000000   12.3992000000    9.9076900000
