%nproc=15
#P B3LYP/6-311+g(d) force

DPGEN

0 2
Na 16.470500 14.440100 16.214600
Na 16.397100 16.188700 13.024100
Na 13.809100 13.724000 14.044800
Na 15.544900 15.207800 19.385200
Na 13.920100 12.935700 17.648100
Na 14.462100 17.269200 10.950300
Na 16.821700 17.660000 16.158400

