%nproc=15
#P B3LYP/6-311+g(d) force

DPGEN

0 2
Na 11.240900 12.395100 14.653800
Na 11.178100 12.542900 9.594440
Na 9.386790 14.200900 12.286100
Na 10.820400 10.586600 12.122700
Na 14.142600 10.126900 10.020100
Na 13.653600 10.099700 13.408300
Na 13.509200 13.979500 11.846200

