Na7 
1.0
3.0693000068800000e+01 0.0000000000000000e+00 0.0000000000000000e+00 
0.0000000000000000e+00 3.0693000068800000e+01 0.0000000000000000e+00 
0.0000000000000000e+00 0.0000000000000000e+00 3.0693000068800000e+01 
Na 
7 
Cartesian
  16.0092000000   15.6265000000   12.3823000000
  13.3151000000   17.4535000000   14.0800000000
  13.6154000000   16.7682000000   17.3102000000
  16.4265000000   16.4161000000   15.8052000000
  16.5074000000   14.0277000000   18.0242000000
  14.2754000000   14.1850000000   14.9682000000
  17.2763000000   12.9485000000   14.8555000000
