%nproc=15
#P B3LYP/6-311+g(d) force

DPGEN

0 2
Na 12.049300 14.147200 11.655300
Na 12.388000 16.493200 14.298000
Na 14.968200 14.413700 12.582300
Na 12.237100 13.023900 14.641400
Na 13.406000 11.124300 11.582300
Na 15.448900 11.524200 14.399100
Na 14.803200 14.574200 16.142300

