%nproc=15
#P B3LYP/6-311+g(d) force

DPGEN

0 2
Na 16.998200 13.120600 11.809200
Na 9.654810 13.831800 16.127600
Na 14.744200 13.318900 14.981500
Na 12.257200 11.051800 15.382800
Na 15.525800 13.798300 9.014570
Na 12.285300 15.381200 14.572800
Na 12.410700 13.373500 11.987700

