%nproc=15
#P B3LYP/6-311+g(d) force

DPGEN

0 2
Na 14.441000 15.809600 11.227300
Na 14.479800 11.356200 11.940300
Na 11.986900 13.433200 13.284500
Na 14.271100 11.870900 15.841500
Na 15.582100 13.996600 14.101900
Na 14.482400 17.031400 14.767200
Na 12.830200 14.575600 16.910900

