%nproc=15
#P B3LYP/6-311+g(d) force

DPGEN

0 2
Na 11.876000 11.163800 9.941190
Na 11.367100 11.708300 13.037900
Na 8.635950 11.371900 11.170700
Na 10.370300 14.147100 10.836700
Na 13.647400 13.429400 11.499600
Na 10.581100 8.653540 11.843700
Na 13.725300 9.729300 11.873600

