Na7 
1.0
3.0693000068800000e+01 0.0000000000000000e+00 0.0000000000000000e+00 
0.0000000000000000e+00 3.0693000068800000e+01 0.0000000000000000e+00 
0.0000000000000000e+00 0.0000000000000000e+00 3.0693000068800000e+01 
Na 
7 
Cartesian
  14.7053000000   15.9901000000   17.3049000000
  17.4221000000   17.2623000000   15.0449000000
  15.8919000000   13.7002000000   14.5868000000
  13.2977000000   12.6417000000   16.7240000000
  12.6410000000   13.8782000000   13.6754000000
  18.3080000000   14.8728000000   13.4538000000
  15.1594000000   19.0802000000   16.6356000000
