Na7 
1.0
2.8441913638300001e+01 0.0000000000000000e+00 0.0000000000000000e+00 
0.0000000000000000e+00 2.8441913638300001e+01 0.0000000000000000e+00 
0.0000000000000000e+00 0.0000000000000000e+00 2.8441913638300001e+01 
Na 
7 
Cartesian
  17.4445000000   12.1986000000   12.9726000000
  14.6638000000   12.4645000000   13.4191000000
  16.0232000000   15.6830000000   12.2285000000
  12.0831000000   16.1873000000   16.9768000000
  11.6176000000   12.9905000000   15.2034000000
  12.7472000000   15.5600000000   13.2016000000
  14.9673000000   14.4628000000   15.5447000000
