Na7 
1.0
3.0693000068800000e+01 0.0000000000000000e+00 0.0000000000000000e+00 
0.0000000000000000e+00 3.0693000068800000e+01 0.0000000000000000e+00 
0.0000000000000000e+00 0.0000000000000000e+00 3.0693000068800000e+01 
Na 
7 
Cartesian
  14.8905000000   16.7271000000   17.4043000000
  15.6625000000   17.6785000000   14.0163000000
  14.3079000000   14.5694000000   14.6219000000
  12.3226000000   18.0099000000   15.3046000000
  15.5159000000   13.0574000000   17.3353000000
  16.7321000000   11.9392000000   13.3001000000
  17.9939000000   15.4441000000   15.4430000000
