Na7 
1.0
3.0693000068800000e+01 0.0000000000000000e+00 0.0000000000000000e+00 
0.0000000000000000e+00 3.0693000068800000e+01 0.0000000000000000e+00 
0.0000000000000000e+00 0.0000000000000000e+00 3.0693000068800000e+01 
Na 
7 
Cartesian
  14.5465000000   17.2780000000   16.0079000000
  12.0601000000   16.7271000000   18.0854000000
  13.0520000000   13.7283000000   16.6982000000
  15.6285000000   13.0603000000   14.8032000000
  16.1613000000   15.9397000000   13.5522000000
  16.9809000000   15.9066000000   17.4600000000
  18.9962000000   14.7855000000   10.8185000000
