%nproc=15
#P B3LYP/6-311+g(d) force

DPGEN

0 2
Na 12.667200 14.500100 11.406900
Na 12.045700 9.067950 9.709730
Na 12.939800 11.877500 8.662630
Na 10.237800 12.718000 14.445900
Na 13.322200 11.176900 12.657600
Na 9.956390 9.241840 12.994800
Na 9.932970 12.519800 11.224600

