Na7 
1.0
2.4107761576400002e+01 0.0000000000000000e+00 0.0000000000000000e+00 
0.0000000000000000e+00 2.4107761576400002e+01 0.0000000000000000e+00 
0.0000000000000000e+00 0.0000000000000000e+00 2.4107761576400002e+01 
Na 
7 
Cartesian
  10.2601000000   11.9262000000    9.3345300000
  11.0797000000   12.8513000000   12.9184000000
   9.9054800000    9.7961100000   12.3230000000
  12.7687000000   14.6674000000   10.2876000000
  12.8323000000   10.6470000000   14.8013000000
  14.1214000000   13.6007000000   13.6437000000
  13.4095000000   10.8886000000   11.0686000000
