Na7 
1.0
3.0693000068800000e+01 0.0000000000000000e+00 0.0000000000000000e+00 
0.0000000000000000e+00 3.0693000068800000e+01 0.0000000000000000e+00 
0.0000000000000000e+00 0.0000000000000000e+00 3.0693000068800000e+01 
Na 
7 
Cartesian
  12.8245000000   17.9358000000   14.4081000000
  16.8110000000   17.7531000000   14.1045000000
  15.4459000000   13.5035000000   17.5883000000
  18.2348000000   14.8171000000   12.2092000000
  12.8073000000   11.3441000000   17.8189000000
  16.0815000000   17.0456000000   17.1612000000
  15.2205000000   15.0263000000   14.1354000000
