%nproc=15
#P B3LYP/6-311+g(d) force

DPGEN

0 2
Na 14.152600 15.560100 14.247100
Na 9.638970 10.492500 12.918000
Na 12.304400 12.964500 13.401600
Na 15.211300 11.822800 12.960600
Na 13.948000 14.826100 10.850300
Na 10.916100 13.321600 10.533400
Na 12.323600 9.507230 13.583900

