%nproc=15
#P B3LYP/6-311+g(d) force

DPGEN

0 2
Na 13.784300 13.319400 13.517800
Na 12.247900 13.673600 10.611100
Na 11.142600 14.553500 14.737800
Na 15.697600 12.741500 10.537300
Na 10.275100 12.316000 12.565100
Na 13.109600 10.804200 11.407100
Na 12.308200 11.157300 15.189200

