Na7 
1.0
3.0693000068800000e+01 0.0000000000000000e+00 0.0000000000000000e+00 
0.0000000000000000e+00 3.0693000068800000e+01 0.0000000000000000e+00 
0.0000000000000000e+00 0.0000000000000000e+00 3.0693000068800000e+01 
Na 
7 
Cartesian
  15.8655000000   16.6926000000   12.7937000000
  15.8057000000   13.9618000000   10.9732000000
  15.6933000000   13.6494000000   17.7747000000
  14.3525000000   19.0191000000   14.4411000000
  16.6911000000   13.9358000000   20.7193000000
  14.9580000000   13.5354000000   14.1274000000
  14.0594000000   16.6314000000   16.5961000000
