%nproc=15
#P B3LYP/6-311+g(d) force

DPGEN

0 2
Na 14.480000 14.226000 13.201800
Na 16.459900 14.078500 9.946640
Na 18.111300 13.956800 12.768700
Na 16.307800 14.911400 15.560700
Na 13.016200 15.805000 15.934600
Na 14.864400 16.915000 18.242900
Na 14.185800 17.532900 21.770100

