Na7 
1.0
3.0693000068800000e+01 0.0000000000000000e+00 0.0000000000000000e+00 
0.0000000000000000e+00 3.0693000068800000e+01 0.0000000000000000e+00 
0.0000000000000000e+00 0.0000000000000000e+00 3.0693000068800000e+01 
Na 
7 
Cartesian
  14.0003000000   14.1785000000   14.1195000000
  15.8524000000   13.0573000000   11.9575000000
  17.7770000000   14.9559000000   13.5218000000
  19.1846000000   17.5090000000   15.2541000000
  16.1440000000   17.3275000000   15.3353000000
  12.6048000000   15.1401000000   16.9764000000
  11.8624000000   15.2571000000   20.2608000000
