%nproc=15
#P B3LYP/6-311+g(d) force

DPGEN

0 2
Na 15.322700 13.734900 14.490600
Na 17.277700 12.990500 12.203300
Na 18.266700 15.778300 15.168600
Na 18.384200 19.335400 16.978900
Na 15.697800 17.049400 16.494400
Na 12.152900 15.506400 15.768600
Na 10.323500 13.030700 16.321000

