Na7 
1.0
2.4872165126900001e+01 0.0000000000000000e+00 0.0000000000000000e+00 
0.0000000000000000e+00 2.4872165126900001e+01 0.0000000000000000e+00 
0.0000000000000000e+00 0.0000000000000000e+00 2.4872165126900001e+01 
Na 
7 
Cartesian
  13.2026000000    9.6139200000   12.5084000000
  10.8654000000   11.8263000000   12.7369000000
  12.7266000000   11.9726000000   15.1076000000
  11.6613000000   14.7727000000   14.2557000000
  11.0231000000   14.4649000000   10.5657000000
  13.0677000000   11.0456000000    9.5249900000
  14.5059000000   13.3566000000   12.3533000000
