Na7 
1.0
2.5556158243900001e+01 0.0000000000000000e+00 0.0000000000000000e+00 
0.0000000000000000e+00 2.5556158243900001e+01 0.0000000000000000e+00 
0.0000000000000000e+00 0.0000000000000000e+00 2.5556158243900001e+01 
Na 
7 
Cartesian
  13.7918000000   12.3029000000   15.5875000000
  13.2561000000   12.5215000000    9.9384500000
  15.6327000000   11.7173000000   12.2046000000
  12.3884000000   11.1743000000   12.4820000000
  13.2509000000   14.5315000000   12.7247000000
  10.7916000000   13.2159000000   14.8759000000
  10.3350000000   13.9831000000   11.6334000000
