Na7 
1.0
3.0693000068800000e+01 0.0000000000000000e+00 0.0000000000000000e+00 
0.0000000000000000e+00 3.0693000068800000e+01 0.0000000000000000e+00 
0.0000000000000000e+00 0.0000000000000000e+00 3.0693000068800000e+01 
Na 
7 
Cartesian
  13.9263000000   14.9566000000   12.7592000000
  13.6006000000   17.4586000000   14.6652000000
  16.2403000000   17.3750000000   17.4354000000
  16.5919000000   15.7671000000   14.6465000000
  17.3278000000   14.4789000000   17.7822000000
  14.3170000000   14.7893000000   16.2992000000
  15.4215000000   12.6001000000   13.8378000000
