Na7 
1.0
2.3475816412000000e+01 0.0000000000000000e+00 0.0000000000000000e+00 
0.0000000000000000e+00 2.3475816412000000e+01 0.0000000000000000e+00 
0.0000000000000000e+00 0.0000000000000000e+00 2.3475816412000000e+01 
Na 
7 
Cartesian
  14.3348000000   10.3729000000   11.8119000000
  11.7614000000   10.5002000000    9.5810500000
  14.0465000000   13.0835000000    9.2561300000
  10.5364000000   10.0025000000   15.5608000000
  11.7852000000   12.0532000000   12.3828000000
  10.9632000000   14.2956000000   10.0644000000
   8.7379300000   11.8575000000   13.5083000000
