Na7 
1.0
2.5443914803799998e+01 0.0000000000000000e+00 0.0000000000000000e+00 
0.0000000000000000e+00 2.5443914803799998e+01 0.0000000000000000e+00 
0.0000000000000000e+00 0.0000000000000000e+00 2.5443914803799998e+01 
Na 
7 
Cartesian
  12.0386000000   10.6145000000   12.9197000000
  13.0734000000   14.1943000000   12.2463000000
  15.7215000000   13.1187000000   14.2030000000
  14.5760000000   11.4556000000   10.9143000000
  11.3770000000   12.9752000000    9.6447300000
  12.7923000000   12.8223000000   16.1286000000
   9.4749800000   13.8731000000   12.9971000000
