%nproc=15
#P B3LYP/6-311+g(d) force

DPGEN

0 2
Na 11.264200 11.267000 13.337000
Na 11.605300 11.413100 9.487890
Na 8.828550 10.979300 11.317800
Na 11.028900 8.681110 11.322200
Na 10.081100 13.883400 11.519100
Na 13.829500 10.242200 11.619700
Na 13.284600 13.455900 11.318300

