Na7 
1.0
2.4175146932800001e+01 0.0000000000000000e+00 0.0000000000000000e+00 
0.0000000000000000e+00 2.4175146932800001e+01 0.0000000000000000e+00 
0.0000000000000000e+00 0.0000000000000000e+00 2.4175146932800001e+01 
Na 
7 
Cartesian
  10.9598000000   10.0939000000   12.4313000000
  13.8681000000   11.7575000000   13.3453000000
  12.0482000000   12.9539000000   10.2388000000
  11.1419000000   12.9959000000   13.8191000000
   7.9325200000   12.0390000000   11.1828000000
  14.1460000000    9.8545600000   10.7082000000
  14.5166000000   14.9183000000   12.8875000000
