Na7 
1.0
2.7975622602400001e+01 0.0000000000000000e+00 0.0000000000000000e+00 
0.0000000000000000e+00 2.7975622602400001e+01 0.0000000000000000e+00 
0.0000000000000000e+00 0.0000000000000000e+00 2.7975622602400001e+01 
Na 
7 
Cartesian
  14.4998000000   11.7826000000   11.8828000000
  11.6177000000   16.0309000000   14.7328000000
  15.1207000000   15.6578000000   16.1663000000
  13.6495000000   12.8464000000   15.1304000000
  14.7490000000   15.1947000000   12.4038000000
  16.5444000000   12.8151000000   14.9321000000
  11.7336000000   13.5873000000   12.6665000000
