Na7 
1.0
2.4587109328000000e+01 0.0000000000000000e+00 0.0000000000000000e+00 
0.0000000000000000e+00 2.4587109328000000e+01 0.0000000000000000e+00 
0.0000000000000000e+00 0.0000000000000000e+00 2.4587109328000000e+01 
Na 
7 
Cartesian
  11.1418000000   13.8603000000    9.7340300000
  13.6052000000   14.6809000000   12.4100000000
  13.8961000000   12.1776000000   15.1690000000
  14.0113000000   11.7348000000   11.3148000000
  10.2251000000   10.8793000000   10.6910000000
  12.0231000000    9.8080800000   13.3921000000
  11.1522000000   12.9139000000   13.3439000000
