%nproc=15
#P B3LYP/6-311+g(d) force

DPGEN

0 2
Na 12.598600 16.407400 13.001500
Na 15.067300 15.569300 15.095600
Na 15.749100 15.252900 11.868900
Na 16.417600 12.357500 14.279300
Na 12.062700 14.578300 15.509600
Na 13.401700 12.979200 12.872900
Na 13.996800 12.149300 16.665800

