%nproc=15
#P B3LYP/6-311+g(d) force

DPGEN

0 2
Na 12.688300 17.228300 15.415800
Na 15.232900 13.055700 17.307600
Na 13.212800 14.307700 14.903700
Na 15.465400 16.373600 17.184600
Na 17.659900 17.457700 14.092300
Na 17.638200 13.955400 15.553600
Na 15.527900 15.047100 12.967900

