Na7 
1.0
2.7005690006500000e+01 0.0000000000000000e+00 0.0000000000000000e+00 
0.0000000000000000e+00 2.7005690006500000e+01 0.0000000000000000e+00 
0.0000000000000000e+00 0.0000000000000000e+00 2.7005690006500000e+01 
Na 
7 
Cartesian
  13.4030000000   15.1859000000   13.3302000000
  15.8602000000   14.7463000000   10.8670000000
  12.9029000000   12.1309000000   11.3595000000
  16.2604000000   12.5451000000   13.5218000000
  13.6554000000   11.9250000000   15.1570000000
  12.1114000000   14.8172000000   16.2809000000
  10.3266000000   13.1695000000   14.0035000000
