%nproc=15
#P B3LYP/6-311+g(d) force

DPGEN

0 2
Na 11.798300 14.893900 11.473700
Na 13.339400 14.046200 14.871700
Na 12.485400 10.854700 15.325200
Na 15.054400 14.167000 10.218800
Na 14.991900 11.033700 11.891700
Na 9.696240 12.786000 13.746000
Na 12.282300 11.866400 12.120900

