Na7 
1.0
2.6113999034999999e+01 0.0000000000000000e+00 0.0000000000000000e+00 
0.0000000000000000e+00 2.6113999034999999e+01 0.0000000000000000e+00 
0.0000000000000000e+00 0.0000000000000000e+00 2.6113999034999999e+01 
Na 
7 
Cartesian
  11.3798000000   14.1255000000   11.1939000000
  15.0456000000   12.4217000000   10.3407000000
  11.5420000000   15.4428000000   13.9519000000
  14.7573000000   15.6639000000   11.4337000000
  14.8914000000    9.9911400000   12.4492000000
  12.8774000000   10.8296000000   15.2466000000
  10.9055000000   12.9242000000   16.7830000000
