Na7 
1.0
3.0693000068800000e+01 0.0000000000000000e+00 0.0000000000000000e+00 
0.0000000000000000e+00 3.0693000068800000e+01 0.0000000000000000e+00 
0.0000000000000000e+00 0.0000000000000000e+00 3.0693000068800000e+01 
Na 
7 
Cartesian
  13.2170000000   16.6638000000   13.1495000000
  13.5872000000   13.5216000000   12.6562000000
  16.8787000000   12.4214000000   17.3844000000
  15.5331000000   19.4525000000   12.7402000000
  16.3845000000   12.5198000000   20.4680000000
  14.7587000000   14.3400000000   15.7941000000
  17.0663000000   18.5063000000   15.2331000000
