Na7 
1.0
2.4099035710399999e+01 0.0000000000000000e+00 0.0000000000000000e+00 
0.0000000000000000e+00 2.4099035710399999e+01 0.0000000000000000e+00 
0.0000000000000000e+00 0.0000000000000000e+00 2.4099035710399999e+01 
Na 
7 
Cartesian
  12.4820000000   11.7222000000   15.2746000000
  12.8983000000   10.6828000000    8.8654400000
  10.2036000000   13.9448000000   13.8176000000
  13.9087000000   10.1851000000   11.6473000000
  13.3275000000   13.7877000000   12.0743000000
  10.6495000000   12.9467000000   10.2519000000
  10.8770000000   11.0774000000   12.4155000000
