Na7 
1.0
3.0693000068800000e+01 0.0000000000000000e+00 0.0000000000000000e+00 
0.0000000000000000e+00 3.0693000068800000e+01 0.0000000000000000e+00 
0.0000000000000000e+00 0.0000000000000000e+00 3.0693000068800000e+01 
Na 
7 
Cartesian
  15.3309000000   17.2551000000   13.5863000000
  17.0041000000   17.3385000000   16.6151000000
  16.4662000000   15.0765000000   18.7693000000
  17.4768000000   14.5397000000   15.3679000000
  14.7726000000   13.8920000000   13.2722000000
  14.4941000000   13.1450000000   16.0816000000
  11.8808000000   16.1787000000   13.7331000000
