Na7 
1.0
2.5645128599200000e+01 0.0000000000000000e+00 0.0000000000000000e+00 
0.0000000000000000e+00 2.5645128599200000e+01 0.0000000000000000e+00 
0.0000000000000000e+00 0.0000000000000000e+00 2.5645128599200000e+01 
Na 
7 
Cartesian
  13.3759000000   14.4602000000   11.5719000000
  10.9872000000   12.2169000000    9.3562500000
  15.6607000000   13.0747000000   14.8488000000
  11.6084000000   14.8254000000   14.6145000000
  13.4305000000   11.5667000000   15.2052000000
  13.7786000000   11.1335000000   11.4563000000
  10.9166000000   12.4805000000   12.7050000000
