Na7 
1.0
2.3225117900899999e+01 0.0000000000000000e+00 0.0000000000000000e+00 
0.0000000000000000e+00 2.3225117900899999e+01 0.0000000000000000e+00 
0.0000000000000000e+00 0.0000000000000000e+00 2.3225117900899999e+01 
Na 
7 
Cartesian
  15.1083000000    9.5691600000    7.0972700000
  15.9096000000   11.4866000000    9.4846300000
  11.8980000000   13.2065000000   14.7380000000
  12.0706000000   10.5640000000    7.6257500000
   4.9864500000   12.4674000000   14.7500000000
   8.0978500000   12.3374000000   15.6667000000
  13.2172000000   11.6569000000   11.9257000000
