Na7 
1.0
2.3262199358600000e+01 0.0000000000000000e+00 0.0000000000000000e+00 
0.0000000000000000e+00 2.3262199358600000e+01 0.0000000000000000e+00 
0.0000000000000000e+00 0.0000000000000000e+00 2.3262199358600000e+01 
Na 
7 
Cartesian
  12.4379000000   11.3523000000   13.0740000000
  10.6933000000    8.7147200000   13.1949000000
  10.8538000000   14.4151000000   11.9751000000
  12.1761000000   13.4599000000    9.7004200000
   9.0203600000   11.0676000000   11.5763000000
  14.6840000000   12.9170000000   11.7986000000
  11.5523000000    9.4910700000   10.0985000000
