Na7 
1.0
2.5254988167400001e+01 0.0000000000000000e+00 0.0000000000000000e+00 
0.0000000000000000e+00 2.5254988167400001e+01 0.0000000000000000e+00 
0.0000000000000000e+00 0.0000000000000000e+00 2.5254988167400001e+01 
Na 
7 
Cartesian
  14.5957000000   14.8120000000   13.3569000000
  10.7099000000   10.9606000000   13.8761000000
  13.9308000000   11.2858000000   13.1909000000
  14.0056000000   12.6731000000   10.1034000000
  11.6154000000   10.5886000000   11.0059000000
  11.8164000000   13.9970000000   11.6605000000
  11.7188000000   14.0754000000   15.1987000000
