Na7 
1.0
3.0693000068800000e+01 0.0000000000000000e+00 0.0000000000000000e+00 
0.0000000000000000e+00 3.0693000068800000e+01 0.0000000000000000e+00 
0.0000000000000000e+00 0.0000000000000000e+00 3.0693000068800000e+01 
Na 
7 
Cartesian
  15.3261000000   16.8691000000   12.6991000000
  18.7637000000   16.8330000000   13.3748000000
  15.4811000000   12.6004000000   18.1944000000
  13.3596000000   19.0613000000   11.1095000000
  13.3118000000   11.8449000000   20.8386000000
  17.1869000000   15.2986000000   15.7202000000
  13.9965000000   14.9182000000   15.4889000000
