Na7 
1.0
2.6442878893500001e+01 0.0000000000000000e+00 0.0000000000000000e+00 
0.0000000000000000e+00 2.6442878893500001e+01 0.0000000000000000e+00 
0.0000000000000000e+00 0.0000000000000000e+00 2.6442878893500001e+01 
Na 
7 
Cartesian
  15.2872000000   15.2338000000   16.1667000000
  12.7445000000   13.1498000000    9.1864900000
  14.2055000000   10.0383000000   10.6314000000
  13.6096000000    9.8798000000   14.1682000000
  11.2902000000   15.4665000000   11.6430000000
  12.5406000000   16.8304000000   14.5391000000
  12.8725000000   11.9516000000   16.2151000000
