%nproc=15
#P B3LYP/6-311+g(d) force

DPGEN

0 2
Na 15.181100 13.929300 14.692400
Na 17.831500 13.575300 12.359800
Na 18.642100 15.478500 14.573800
Na 18.348300 18.195700 16.289500
Na 15.169700 17.078200 16.458700
Na 11.672200 15.953000 16.314600
Na 10.580600 13.215600 16.736800

