%nproc=15
#P B3LYP/6-311+g(d) force

DPGEN

0 2
Na 11.245600 9.000690 9.360960
Na 10.002800 13.930400 12.065900
Na 9.343610 10.653100 12.920800
Na 12.248700 12.936700 14.373200
Na 14.289900 10.394100 12.982200
Na 12.422900 11.856800 9.651330
Na 13.825400 14.607100 12.024500

