Na7 
1.0
2.3078878380900001e+01 0.0000000000000000e+00 0.0000000000000000e+00 
0.0000000000000000e+00 2.3078878380900001e+01 0.0000000000000000e+00 
0.0000000000000000e+00 0.0000000000000000e+00 2.3078878380900001e+01 
Na 
7 
Cartesian
  10.5614000000   13.2795000000   12.0736000000
  13.6700000000   12.5243000000    9.4760200000
  12.3465000000   10.3598000000   11.4274000000
  11.7590000000   10.2354000000   14.2864000000
   9.8006100000   11.6905000000    8.5948300000
   8.7722200000    9.9390600000   12.0750000000
  13.8664000000   12.7475000000   12.8428000000
