%nproc=15
#P B3LYP/6-311+g(d) force

DPGEN

0 2
Na 14.318800 14.163200 13.444100
Na 15.807800 12.432000 11.204900
Na 17.703100 14.779200 13.593300
Na 18.616500 17.168200 15.557600
Na 15.684500 17.651400 15.531100
Na 12.958800 15.989100 17.413700
Na 12.336000 15.242500 20.680800

