%nproc=15
#P B3LYP/6-311+g(d) force

DPGEN

0 2
Na 15.068300 17.286100 15.007000
Na 12.527700 17.019200 17.463500
Na 15.204000 15.164600 18.412100
Na 16.750300 14.039000 15.847400
Na 16.919400 15.915300 12.493600
Na 15.587000 11.958900 18.689500
Na 15.368800 16.042300 9.512350

