Na7 
1.0
3.0693000068800000e+01 0.0000000000000000e+00 0.0000000000000000e+00 
0.0000000000000000e+00 3.0693000068800000e+01 0.0000000000000000e+00 
0.0000000000000000e+00 0.0000000000000000e+00 3.0693000068800000e+01 
Na 
7 
Cartesian
  14.6721000000   16.8666000000   15.6000000000
  14.6864000000   18.8120000000   18.0564000000
  16.5321000000   15.5638000000   18.1825000000
  14.2661000000   13.5406000000   15.8802000000
  14.8016000000   14.3930000000   13.0436000000
  17.0636000000   11.9775000000   17.7169000000
  15.4037000000   16.2721000000    8.9459300000
