%nproc=15
#P B3LYP/6-311+g(d) force

DPGEN

0 2
Na 11.772800 12.102600 13.615600
Na 11.224500 10.531200 11.295500
Na 9.026450 12.103800 12.506700
Na 11.228800 13.675100 11.294700
Na 13.455700 12.099500 10.455000
Na 14.005100 13.676300 12.773700
Na 14.003700 10.528800 12.775900

