Na7 
1.0
2.4053977075599999e+01 0.0000000000000000e+00 0.0000000000000000e+00 
0.0000000000000000e+00 2.4053977075599999e+01 0.0000000000000000e+00 
0.0000000000000000e+00 0.0000000000000000e+00 2.4053977075599999e+01 
Na 
7 
Cartesian
  11.4072000000   12.0770000000   10.0953000000
   9.2290200000   12.7008000000   12.4843000000
  11.7311000000   14.7805000000   12.4842000000
  10.4783000000    9.6226600000   13.2187000000
  12.9756000000   11.7530000000   13.5582000000
  14.1771000000    9.8235300000   11.5321000000
  14.1905000000   13.4313000000   10.8162000000
