%nproc=15
#P B3LYP/6-311+g(d) force

DPGEN

0 2
Na 15.736000 17.374000 13.727300
Na 17.077500 17.812500 16.718900
Na 16.222400 14.853400 18.665400
Na 17.112500 14.373700 15.336800
Na 14.614100 14.531200 12.928000
Na 14.761800 12.802200 16.758900
Na 11.901200 15.678600 13.290200

