%nproc=15
#P B3LYP/6-311+g(d) force

DPGEN

0 2
Na 14.101900 17.766500 15.437900
Na 17.343000 17.709800 16.095300
Na 18.171400 14.239800 15.166200
Na 15.635600 15.465200 13.568000
Na 14.690200 12.368000 15.425000
Na 15.205600 15.092700 16.679000
Na 12.277700 14.783500 15.054100

