%nproc=15
#P B3LYP/6-311+g(d) force

DPGEN

0 2
Na 13.415200 14.645300 10.494300
Na 15.962700 14.028600 12.077800
Na 15.836300 11.813300 14.984800
Na 12.871600 12.201100 13.213400
Na 14.461700 15.492100 14.633900
Na 11.560800 15.436700 14.100500
Na 12.396100 12.887200 16.999600

