%nproc=15
#P B3LYP/6-311+g(d) force

DPGEN

0 2
Na 15.393800 14.870500 9.638730
Na 10.185700 10.989000 16.572800
Na 15.819900 12.548200 12.721400
Na 14.090400 11.834500 14.997300
Na 10.564400 9.759610 13.915100
Na 11.326000 13.747200 11.632400
Na 12.518600 16.149900 10.421200

