%nproc=15
#P B3LYP/6-311+g(d) force

DPGEN

0 2
Na 15.490500 11.279800 15.153900
Na 14.887000 17.461700 12.129200
Na 17.649900 15.607100 11.631500
Na 15.910300 13.306700 13.485700
Na 12.149100 15.575300 13.605700
Na 12.129200 11.172000 16.359000
Na 10.027200 13.840700 15.878300

