%nproc=15
#P B3LYP/6-311+g(d) force

DPGEN

0 2
Na 13.480600 16.349100 15.106500
Na 14.883600 18.061500 17.955300
Na 15.372100 15.158100 18.649700
Na 15.854300 14.478700 15.266900
Na 15.339400 14.694900 11.905300
Na 16.795100 12.109100 18.966600
Na 15.700500 16.574100 9.575260

