%nproc=15
#P B3LYP/6-311+g(d) force

DPGEN

0 2
Na 14.536900 17.655600 14.333000
Na 18.313600 17.388200 13.302000
Na 14.972200 13.617500 18.175900
Na 14.565700 17.360100 11.039600
Na 13.020700 11.428800 19.606400
Na 17.730900 15.641900 15.906500
Na 14.285600 14.333300 15.062100

