%nproc=15
#P B3LYP/6-311+g(d) force

DPGEN

0 2
Na 14.220100 10.278600 11.667300
Na 11.769100 11.670200 10.009000
Na 11.096200 8.462440 11.612000
Na 8.264070 11.807500 11.748500
Na 11.624800 11.492900 13.789700
Na 10.740800 14.389500 11.475200
Na 14.307100 13.921100 11.720700

