Na7 
1.0
3.0693000068800000e+01 0.0000000000000000e+00 0.0000000000000000e+00 
0.0000000000000000e+00 3.0693000068800000e+01 0.0000000000000000e+00 
0.0000000000000000e+00 0.0000000000000000e+00 3.0693000068800000e+01 
Na 
7 
Cartesian
  14.9633000000   13.9543000000   14.6917000000
  17.8732000000   13.5810000000   12.3415000000
  18.6617000000   15.5465000000   14.5693000000
  18.5002000000   18.1509000000   16.2305000000
  15.4595000000   17.1914000000   16.4754000000
  11.5005000000   16.0317000000   16.2644000000
  10.4671000000   12.9697000000   16.8527000000
