Na7 
1.0
2.5040062164399998e+01 0.0000000000000000e+00 0.0000000000000000e+00 
0.0000000000000000e+00 2.5040062164399998e+01 0.0000000000000000e+00 
0.0000000000000000e+00 0.0000000000000000e+00 2.5040062164399998e+01 
Na 
7 
Cartesian
  11.3579000000   14.1396000000   10.3217000000
  13.2807000000   10.0177000000   13.8348000000
  12.6029000000   15.4723000000   13.0705000000
  13.9867000000   13.1111000000   15.0521000000
  10.9241000000   12.3799000000   13.1896000000
  11.0760000000   10.2314000000   10.7728000000
  14.4119000000   12.2883000000   11.3987000000
