%nproc=15
#P B3LYP/6-311+g(d) force

DPGEN

0 2
Na 12.461500 11.552500 14.287100
Na 10.585000 14.432800 13.751700
Na 15.859800 9.947320 12.315200
Na 15.075600 12.646800 10.875500
Na 13.799900 14.968200 12.591900
Na 8.543490 11.780200 12.766100
Na 11.128700 12.126000 10.866400

