Na7 
1.0
2.3263357095100002e+01 0.0000000000000000e+00 0.0000000000000000e+00 
0.0000000000000000e+00 2.3263357095100002e+01 0.0000000000000000e+00 
0.0000000000000000e+00 0.0000000000000000e+00 2.3263357095100002e+01 
Na 
7 
Cartesian
   9.3144300000    9.5990900000   11.4926000000
  14.3073000000   12.0697000000   11.5562000000
  12.9519000000    9.0442600000   12.9095000000
  12.3278000000   14.9182000000   11.1327000000
  11.4153000000   11.8957000000   13.3695000000
   9.3683700000   12.9439000000   11.2079000000
  11.7366000000   10.9510000000    9.7533500000
