Na7 
1.0
3.0693000068800000e+01 0.0000000000000000e+00 0.0000000000000000e+00 
0.0000000000000000e+00 3.0693000068800000e+01 0.0000000000000000e+00 
0.0000000000000000e+00 0.0000000000000000e+00 3.0693000068800000e+01 
Na 
7 
Cartesian
  12.9288000000   16.4079000000   13.5854000000
  10.3653000000   13.5360000000   14.1756000000
  13.4680000000   12.9158000000   13.1567000000
  16.8892000000   13.5854000000   13.5005000000
  16.2160000000   16.0952000000   15.4660000000
  17.6348000000   16.2541000000   18.9540000000
  19.9234000000   18.6311000000   18.5873000000
