%nproc=15
#P B3LYP/6-311+g(d) force

DPGEN

0 2
Na 12.485400 13.824700 10.574300
Na 11.328800 12.102000 13.109700
Na 11.286700 15.431500 13.555400
Na 13.073700 13.044100 16.153500
Na 14.415100 11.180200 13.622300
Na 13.671100 10.844200 10.364000
Na 14.426400 14.260700 13.308000

