%nproc=15
#P B3LYP/6-311+g(d) force

DPGEN

0 2
Na 14.697000 16.771200 15.182000
Na 14.774300 18.621700 18.052600
Na 15.573100 15.637800 18.470900
Na 15.075600 13.356100 15.517600
Na 14.392400 14.354000 12.631300
Na 17.170900 12.267000 17.947600
Na 15.742100 16.417800 9.623510

