Na7 
1.0
3.0693000068800000e+01 0.0000000000000000e+00 0.0000000000000000e+00 
0.0000000000000000e+00 3.0693000068800000e+01 0.0000000000000000e+00 
0.0000000000000000e+00 0.0000000000000000e+00 3.0693000068800000e+01 
Na 
7 
Cartesian
  14.7652000000   15.6113000000   15.0044000000
  16.8179000000   13.3844000000   15.9240000000
  17.1328000000   15.0100000000   12.5196000000
  14.6706000000   18.0986000000   17.0539000000
  13.9504000000   12.1367000000   14.1533000000
  12.5488000000   15.6454000000   17.7341000000
  17.5398000000   17.5392000000   15.0361000000
