%nproc=15
#P B3LYP/6-311+g(d) force

DPGEN

0 2
Na 10.457900 15.524000 13.127000
Na 12.153400 13.518100 15.692600
Na 11.186000 12.219300 12.826100
Na 13.812700 11.190000 14.315200
Na 13.238400 12.214100 10.309800
Na 14.145000 14.800000 12.787900
Na 15.803000 11.330800 11.737800

