Na7 
1.0
2.3475229868800000e+01 0.0000000000000000e+00 0.0000000000000000e+00 
0.0000000000000000e+00 2.3475229868800000e+01 0.0000000000000000e+00 
0.0000000000000000e+00 0.0000000000000000e+00 2.3475229868800000e+01 
Na 
7 
Cartesian
  10.1740000000   13.8237000000   11.2751000000
  10.6514000000   10.9765000000    9.6825500000
  12.3301000000   13.7378000000    8.2049200000
  10.1810000000   11.2551000000   13.2909000000
  12.8450000000   12.4581000000   12.0229000000
  13.2044000000   10.7044000000   15.4708000000
  12.7774000000    9.2078400000   12.2162000000
