Na7 
1.0
3.0693000068800000e+01 0.0000000000000000e+00 0.0000000000000000e+00 
0.0000000000000000e+00 3.0693000068800000e+01 0.0000000000000000e+00 
0.0000000000000000e+00 0.0000000000000000e+00 3.0693000068800000e+01 
Na 
7 
Cartesian
  15.3874000000   17.1439000000   17.2348000000
  10.8562000000   12.9977000000   15.4217000000
  12.8038000000   15.7726000000   15.6013000000
  13.5045000000   12.3644000000   14.7506000000
  16.6529000000   14.2534000000   14.6523000000
  17.5498000000   17.6980000000   14.4067000000
  20.6709000000   17.1955000000   15.3581000000
