%nproc=15
#P B3LYP/6-311+g(d) force

DPGEN

0 2
Na 14.404700 16.153000 17.387800
Na 17.193000 16.822000 14.796300
Na 16.374000 13.730000 14.775800
Na 12.970100 13.276600 16.951500
Na 12.994700 13.461400 13.715500
Na 18.032900 14.677500 12.441500
Na 15.456200 19.305100 17.357200

