Na7 
1.0
3.0693000068800000e+01 0.0000000000000000e+00 0.0000000000000000e+00 
0.0000000000000000e+00 3.0693000068800000e+01 0.0000000000000000e+00 
0.0000000000000000e+00 0.0000000000000000e+00 3.0693000068800000e+01 
Na 
7 
Cartesian
  12.5318000000   16.4406000000   15.5058000000
  16.5928000000   16.5038000000   16.1878000000
  17.7046000000   12.8122000000   14.9380000000
  14.8246000000   13.9903000000   14.2816000000
  11.6196000000   12.9532000000   13.8449000000
  19.7973000000   15.6321000000   16.7463000000
  14.3548000000   19.0933000000   15.9211000000
