%nproc=15
#P B3LYP/6-311+g(d) force

DPGEN

0 2
Na 13.442500 14.125400 10.556300
Na 12.880900 11.580000 12.689100
Na 13.890400 10.691900 9.386490
Na 10.253500 11.104100 9.220970
Na 9.785140 10.846400 14.123900
Na 13.036700 10.765400 15.809100
Na 9.526650 13.702600 11.029900

