Na7 
1.0
2.5910656903700001e+01 0.0000000000000000e+00 0.0000000000000000e+00 
0.0000000000000000e+00 2.5910656903700001e+01 0.0000000000000000e+00 
0.0000000000000000e+00 0.0000000000000000e+00 2.5910656903700001e+01 
Na 
7 
Cartesian
  10.0427000000   12.3103000000   12.2631000000
  16.0732000000   12.5094000000   11.9047000000
  12.8362000000   11.9851000000   10.4237000000
  12.9203000000   11.4417000000   13.7438000000
  12.3629000000   14.8023000000   12.1379000000
  11.4680000000   13.3318000000   15.9520000000
  14.9840000000   14.3067000000   14.2621000000
