%nproc=15
#P B3LYP/6-311+g(d) force

DPGEN

0 2
Na 11.116200 12.980000 13.819300
Na 13.683600 10.615800 13.714000
Na 13.480600 14.481300 11.723900
Na 16.405300 12.430500 12.996700
Na 14.040600 13.434700 15.193700
Na 11.964800 16.497400 15.194200
Na 15.589800 15.841100 13.639100

