%nproc=15
#P B3LYP/6-311+g(d) force

DPGEN

0 2
Na 13.309000 12.559000 10.681600
Na 13.470000 10.848600 13.347900
Na 12.241700 14.267000 13.446500
Na 10.083200 11.634500 12.370900
Na 12.047700 8.025470 12.027700
Na 11.027000 10.671300 9.896910
Na 10.318500 14.491400 10.725700

