%nproc=15
#P B3LYP/6-311+g(d) force

DPGEN

0 2
Na 15.074900 16.509800 16.394000
Na 9.125500 14.256700 17.080200
Na 12.248500 14.866200 16.036400
Na 14.707900 13.424100 14.406500
Na 17.748000 14.241100 14.856900
Na 18.554100 17.562700 15.589400
Na 19.966500 16.564900 13.062100

