Na7 
1.0
3.0693000068800000e+01 0.0000000000000000e+00 0.0000000000000000e+00 
0.0000000000000000e+00 3.0693000068800000e+01 0.0000000000000000e+00 
0.0000000000000000e+00 0.0000000000000000e+00 3.0693000068800000e+01 
Na 
7 
Cartesian
  15.0749000000   16.5098000000   16.3940000000
   9.1255000000   14.2567000000   17.0802000000
  12.2485000000   14.8662000000   16.0364000000
  14.7079000000   13.4241000000   14.4065000000
  17.7480000000   14.2411000000   14.8569000000
  18.5541000000   17.5627000000   15.5894000000
  19.9665000000   16.5649000000   13.0621000000
