Na7 
1.0
3.0693000068800000e+01 0.0000000000000000e+00 0.0000000000000000e+00 
0.0000000000000000e+00 3.0693000068800000e+01 0.0000000000000000e+00 
0.0000000000000000e+00 0.0000000000000000e+00 3.0693000068800000e+01 
Na 
7 
Cartesian
  14.8733000000   16.7075000000   12.8765000000
  18.6292000000   14.6892000000   12.2407000000
  14.3930000000   13.4654000000   17.1979000000
  13.8119000000   19.1520000000   14.3992000000
  16.1213000000   13.5168000000   20.1758000000
  16.9283000000   13.5712000000   14.6321000000
  12.6686000000   16.3235000000   15.9034000000
