Na7 
1.0
3.0693000068800000e+01 0.0000000000000000e+00 0.0000000000000000e+00 
0.0000000000000000e+00 3.0693000068800000e+01 0.0000000000000000e+00 
0.0000000000000000e+00 0.0000000000000000e+00 3.0693000068800000e+01 
Na 
7 
Cartesian
  16.8686000000   13.4368000000   14.7869000000
  20.0056000000   14.0585000000   13.5789000000
  18.4698000000   16.0209000000   15.5614000000
  16.7137000000   18.9737000000   16.5772000000
  14.9110000000   16.2088000000   15.9571000000
  11.7324000000   14.1793000000   15.5082000000
   8.7244600000   14.5475000000   15.4558000000
