%nproc=15
#P B3LYP/6-311+g(d) force

DPGEN

0 2
Na 13.313800 17.155200 13.072100
Na 13.605800 14.327600 11.545300
Na 11.800600 11.249600 11.270700
Na 14.802000 14.775800 14.805700
Na 15.250900 11.882500 13.302500
Na 14.152900 11.842000 16.554000
Na 11.865600 13.558900 14.241300

