Na7 
1.0
2.7561100218200000e+01 0.0000000000000000e+00 0.0000000000000000e+00 
0.0000000000000000e+00 2.7561100218200000e+01 0.0000000000000000e+00 
0.0000000000000000e+00 0.0000000000000000e+00 2.7561100218200000e+01 
Na 
7 
Cartesian
  14.6568000000   15.0635000000   15.0494000000
  14.8398000000   15.4064000000   11.5641000000
  12.8824000000   11.9795000000   13.0197000000
  11.5465000000   14.1714000000   14.6924000000
  16.2398000000   12.3522000000   14.0366000000
  12.1626000000   14.8212000000   11.0869000000
  14.1359000000   12.6697000000   17.0150000000
