%nproc=15
#P B3LYP/6-311+g(d) force

DPGEN

0 2
Na 14.839400 11.756400 12.405600
Na 15.114100 16.982400 14.851800
Na 15.073700 13.115200 15.866400
Na 16.964700 14.972900 12.662400
Na 12.458900 15.654700 16.336100
Na 11.954600 12.407800 14.698800
Na 13.462100 14.978000 13.046400

