Na7 
1.0
3.0693000068800000e+01 0.0000000000000000e+00 0.0000000000000000e+00 
0.0000000000000000e+00 3.0693000068800000e+01 0.0000000000000000e+00 
0.0000000000000000e+00 0.0000000000000000e+00 3.0693000068800000e+01 
Na 
7 
Cartesian
  14.8596000000   13.7548000000   14.9266000000
  16.6840000000   15.5305000000   12.7472000000
  11.8134000000   14.9979000000   15.9111000000
  16.6054000000   15.8416000000   16.4146000000
  14.0439000000   14.1188000000   17.9875000000
  14.1726000000   16.8644000000   14.7789000000
  19.2466000000   16.3175000000   14.6596000000
